,Element,S.Mises.mean,S.S12.mean,intpointx,intpointy,intpointz
0,1732,0.029713,-0.013606499999999999,2578.447875,89.6875,0.0
1,1733,0.03029515,-0.0167558,2578.447875,64.0625,0.0
2,1734,0.03028355,-0.0169415,2578.447875,38.4375,0.0
3,1735,0.03092635,-0.0173331,2578.447875,12.8125,0.0
4,1736,0.03029265,-0.01683345,2578.447875,-12.8125,0.0
5,1737,0.028213999999999996,-0.015581500000000002,2578.447875,-38.4375,0.0
6,1738,0.025664649999999997,-0.01414565,2578.447875,-64.0625,0.0
7,1739,0.0188721,-0.010281005,2578.447875,-89.6875,0.0
8,1740,0.022709800000000002,-0.011729900000000001,2553.34375,89.6875,0.0
9,1741,0.030451850000000003,-0.016950299999999998,2553.34375,64.0625,0.0
10,1742,0.03120985,-0.017677650000000003,2553.34375,38.4375,0.0
11,1743,0.0320593,-0.017977150000000004,2553.34375,12.8125,0.0
12,1744,0.03170425,-0.017580850000000002,2553.34375,-12.8125,0.0
13,1745,0.03053665,-0.01656245,2553.34375,-38.4375,0.0
14,1746,0.027454199999999998,-0.0150193,2553.34375,-64.0625,0.0
15,1747,0.018054800000000003,-0.009952175,2553.34375,-89.6875,0.0
16,1748,0.0193605,-0.01094515,2528.239625,89.6875,0.0
17,1749,0.027302850000000004,-0.01549815,2528.239625,64.0625,0.0
18,1750,0.03232265000000001,-0.0183466,2528.239625,38.4375,0.0
19,1751,0.0331273,-0.0186766,2528.239625,12.8125,0.0
20,1752,0.03355465,-0.018505599999999997,2528.239625,-12.8125,0.0
21,1753,0.032332349999999996,-0.0174769,2528.239625,-38.4375,0.0
22,1754,0.02768755,-0.014506749999999999,2528.239625,-64.0625,0.0
23,1755,0.02007255,-0.009510475000000001,2528.239625,-89.6875,0.0
24,1756,0.019053149999999998,-0.01093125,2503.135375,89.6875,0.0
25,1757,0.02651225,-0.01527875,2503.135375,64.0625,0.0
26,1758,0.031382,-0.01794655,2503.135375,38.4375,0.0
27,1759,0.03433364999999999,-0.019357,2503.135375,12.8125,0.0
28,1760,0.034576749999999996,-0.0190701,2503.135375,-12.8125,0.0
29,1761,0.03324805,-0.0176394,2503.135375,-38.4375,0.0
30,1762,0.029490750000000003,-0.0144905,2503.135375,-64.0625,0.0
31,1763,0.023950899999999997,-0.00941935,2503.135375,-89.6875,0.0
32,1764,0.01980315,-0.010843450000000001,2478.03125,89.6875,0.0
33,1765,0.026315699999999997,-0.015142599999999999,2478.03125,64.0625,0.0
34,1766,0.0311106,-0.0179011,2478.03125,38.4375,0.0
35,1767,0.034102,-0.0193216,2478.03125,12.8125,0.0
36,1768,0.0354592,-0.019429949999999998,2478.03125,-12.8125,0.0
37,1769,0.03405715,-0.0176303,2478.03125,-38.4375,0.0
38,1770,0.0317998,-0.014654400000000001,2478.03125,-64.0625,0.0
39,1771,0.0286183,-0.00971868,2478.03125,-89.6875,0.0
40,1772,0.021458,-0.01053055,2452.927125,89.6875,0.0
41,1773,0.02658455,-0.015019000000000001,2452.927125,64.0625,0.0
42,1774,0.0313138,-0.0180549,2452.927125,38.4375,0.0
43,1775,0.03320145000000001,-0.01876995,2452.927125,12.8125,0.0
44,1776,0.0343475,-0.0188621,2452.927125,-12.8125,0.0
45,1777,0.0361649,-0.01842055,2452.927125,-38.4375,0.0
46,1778,0.034615400000000004,-0.01487875,2452.927125,-64.0625,0.0
47,1779,0.033497,-0.00973041,2452.927125,-89.6875,0.0
48,1780,0.025759650000000002,-0.010964100000000001,2427.822875,89.6875,0.0
49,1781,0.029224550000000002,-0.0160953,2427.822875,64.0625,0.0
50,1782,0.029452649999999997,-0.01694225,2427.822875,38.4375,0.0
51,1783,0.0310383,-0.017610349999999997,2427.822875,12.8125,0.0
52,1784,0.0328892,-0.01783225,2427.822875,-12.8125,0.0
53,1785,0.034715350000000006,-0.0178132,2427.822875,-38.4375,0.0
54,1786,0.03989545,-0.0172883,2427.822875,-64.0625,0.0
55,1787,0.0412357,-0.01138495,2427.822875,-89.6875,0.0
56,1788,0.0325205,-0.01289545,2402.71875,89.6875,0.0
57,1789,0.027359750000000002,-0.01502645,2402.71875,64.0625,0.0
58,1790,0.0263684,-0.01510305,2402.71875,38.4375,0.0
59,1791,0.027996399999999998,-0.015782200000000003,2402.71875,12.8125,0.0
60,1792,0.030098350000000003,-0.016276600000000002,2402.71875,-12.8125,0.0
61,1793,0.032419300000000005,-0.01607575,2402.71875,-38.4375,0.0
62,1794,0.03827155,-0.01739615,2402.71875,-64.0625,0.0
63,1795,0.05014589999999999,-0.016122,2402.71875,-89.6875,0.0
64,1796,0.02975085,-0.01471745,2377.614625,89.6875,0.0
65,1797,0.0341445,-0.0186939,2377.614625,64.0625,0.0
66,1798,0.035518949999999994,-0.0186659,2377.614625,38.4375,0.0
67,1799,0.038158250000000005,-0.018698,2377.614625,12.8125,0.0
68,1800,0.0396773,-0.01706675,2377.614625,-12.8125,0.0
69,1801,0.04117435,-0.014754199999999999,2377.614625,-38.4375,0.0
70,1802,0.0410112,-0.0105758,2377.614625,-64.0625,0.0
71,1803,0.03796175,-0.0041611949999999995,2377.614625,-89.6875,0.0
72,1804,0.023102650000000002,-0.0128065,2352.510375,89.6875,0.0
73,1805,0.0325623,-0.017915049999999995,2352.510375,64.0625,0.0
74,1806,0.034795450000000006,-0.0183935,2352.510375,38.4375,0.0
75,1807,0.03809995000000001,-0.018112049999999998,2352.510375,12.8125,0.0
76,1808,0.0416442,-0.017085799999999998,2352.510375,-12.8125,0.0
77,1809,0.045035149999999996,-0.01501295,2352.510375,-38.4375,0.0
78,1810,0.0484126,-0.0124518,2352.510375,-64.0625,0.0
79,1811,0.04850285,-0.008322275,2352.510375,-89.6875,0.0
80,1812,0.02071485,-0.01177245,2327.40625,89.6875,0.0
81,1813,0.0288968,-0.016119050000000003,2327.40625,64.0625,0.0
82,1814,0.0352417,-0.01854745,2327.40625,38.4375,0.0
83,1815,0.03904905,-0.01838955,2327.40625,12.8125,0.0
84,1816,0.0440402,-0.0177848,2327.40625,-12.8125,0.0
85,1817,0.04901665,-0.01624415,2327.40625,-38.4375,0.0
86,1818,0.05247,-0.0138858,2327.40625,-64.0625,0.0
87,1819,0.053961850000000006,-0.00899583,2327.40625,-89.6875,0.0
88,1820,0.02140795,-0.01172595,2302.302125,89.6875,0.0
89,1821,0.027512900000000003,-0.015686500000000003,2302.302125,64.0625,0.0
90,1822,0.0340225,-0.01792325,2302.302125,38.4375,0.0
91,1823,0.04046469999999999,-0.01912015,2302.302125,12.8125,0.0
92,1824,0.046007599999999996,-0.018410799999999998,2302.302125,-12.8125,0.0
93,1825,0.051469249999999994,-0.017105799999999997,2302.302125,-38.4375,0.0
94,1826,0.05571455,-0.01396005,2302.302125,-64.0625,0.0
95,1827,0.060069750000000005,-0.00891801,2302.302125,-89.6875,0.0
96,1828,0.02262865,-0.01158975,2277.197875,89.6875,0.0
97,1829,0.02675655,-0.0153948,2277.197875,64.0625,0.0
98,1830,0.03377935,-0.01818725,2277.197875,38.4375,0.0
99,1831,0.040535049999999996,-0.01909815,2277.197875,12.8125,0.0
100,1832,0.0475709,-0.01918035,2277.197875,-12.8125,0.0
101,1833,0.0535977,-0.01721875,2277.197875,-38.4375,0.0
102,1834,0.05938575,-0.01399445,2277.197875,-64.0625,0.0
103,1835,0.06549235,-0.009222075,2277.197875,-89.6875,0.0
104,1836,0.02464585,-0.011335999999999999,2252.09375,89.6875,0.0
105,1837,0.0269261,-0.015465399999999999,2252.09375,64.0625,0.0
106,1838,0.03296085,-0.01806465,2252.09375,38.4375,0.0
107,1839,0.04093139999999999,-0.0196175,2252.09375,12.8125,0.0
108,1840,0.04815615000000001,-0.0191244,2252.09375,-12.8125,0.0
109,1841,0.0559385,-0.0176898,2252.09375,-38.4375,0.0
110,1842,0.0632728,-0.0141849,2252.09375,-64.0625,0.0
111,1843,0.07109615,-0.009021359999999999,2252.09375,-89.6875,0.0
112,1844,0.02729905,-0.01129555,2226.989625,89.6875,0.0
113,1845,0.02707,-0.015247199999999999,2226.989625,64.0625,0.0
114,1846,0.032264799999999996,-0.0179932,2226.989625,38.4375,0.0
115,1847,0.039993249999999994,-0.0195122,2226.989625,12.8125,0.0
116,1848,0.0496922,-0.0198438,2226.989625,-12.8125,0.0
117,1849,0.05767,-0.017586150000000002,2226.989625,-38.4375,0.0
118,1850,0.0669438,-0.014582999999999999,2226.989625,-64.0625,0.0
119,1851,0.0767522,-0.009849475,2226.989625,-89.6875,0.0
120,1852,0.029944400000000003,-0.010475149999999999,2201.885375,89.6875,0.0
121,1853,0.027222450000000002,-0.014774599999999999,2201.885375,64.0625,0.0
122,1854,0.0316837,-0.0179765,2201.885375,38.4375,0.0
123,1855,0.039104150000000004,-0.0189301,2201.885375,12.8125,0.0
124,1856,0.047742099999999996,-0.0193194,2201.885375,-12.8125,0.0
125,1857,0.061051049999999996,-0.01933605,2201.885375,-38.4375,0.0
126,1858,0.07117365,-0.01507065,2201.885375,-64.0625,0.0
127,1859,0.0818777,-0.00982245,2201.885375,-89.6875,0.0
128,1860,0.03478755,-0.010477050000000002,2176.78125,89.6875,0.0
129,1861,0.02966385,-0.01548925,2176.78125,64.0625,0.0
130,1862,0.028844299999999996,-0.01626445,2176.78125,38.4375,0.0
131,1863,0.03529855,-0.017250750000000002,2176.78125,12.8125,0.0
132,1864,0.046078350000000004,-0.017998350000000003,2176.78125,-12.8125,0.0
133,1865,0.057569350000000005,-0.01916825,2176.78125,-38.4375,0.0
134,1866,0.0773209,-0.019801449999999998,2176.78125,-64.0625,0.0
135,1867,0.09117475,-0.0129259,2176.78125,-89.6875,0.0
136,1868,0.040266800000000005,-0.0127,2151.677125,89.6875,0.0
137,1869,0.025438750000000003,-0.01337075,2151.677125,64.0625,0.0
138,1870,0.02308855,-0.0130337,2151.677125,38.4375,0.0
139,1871,0.0300635,-0.013824449999999999,2151.677125,12.8125,0.0
140,1872,0.04068405,-0.01540565,2151.677125,-12.8125,0.0
141,1873,0.0534863,-0.01635035,2151.677125,-38.4375,0.0
142,1874,0.07041185,-0.02109785,2151.677125,-64.0625,0.0
143,1875,0.09926385,-0.023167649999999998,2151.677125,-89.6875,0.0
144,1876,0.0292132,-0.0155134,2126.572875,89.6875,0.0
145,1877,0.03815125,-0.02091475,2126.572875,64.0625,0.0
146,1878,0.0421995,-0.02065705,2126.572875,38.4375,0.0
147,1879,0.05008660000000001,-0.02055235,2126.572875,12.8125,0.0
148,1880,0.05744815,-0.01751705,2126.572875,-12.8125,0.0
149,1881,0.06689609999999999,-0.01400785,2126.572875,-38.4375,0.0
150,1882,0.07481605,-0.006379195,2126.572875,-64.0625,0.0
151,1883,0.0867546,0.0032903949999999998,2126.572875,-89.6875,0.0
152,1884,0.0250283,-0.013899349999999998,2101.46875,89.6875,0.0
153,1885,0.03392365,-0.0187111,2101.46875,64.0625,0.0
154,1886,0.04011615,-0.0192924,2101.46875,38.4375,0.0
155,1887,0.049236800000000004,-0.018227849999999997,2101.46875,12.8125,0.0
156,1888,0.0611037,-0.01666815,2101.46875,-12.8125,0.0
157,1889,0.07302205,-0.0132739,2101.46875,-38.4375,0.0
158,1890,0.0882931,-0.009488065,2101.46875,-64.0625,0.0
159,1891,0.09870594999999999,-0.00648152,2101.46875,-89.6875,0.0
160,1892,0.02404355,-0.012303000000000001,2076.364625,89.6875,0.0
161,1893,0.0302379,-0.0168047,2076.364625,64.0625,0.0
162,1894,0.039546,-0.0184992,2076.364625,38.4375,0.0
163,1895,0.0508622,-0.0181874,2076.364625,12.8125,0.0
164,1896,0.06442824999999999,-0.016983400000000003,2076.364625,-12.8125,0.0
165,1897,0.07961309999999999,-0.014922750000000002,2076.364625,-38.4375,0.0
166,1898,0.09316635,-0.013384050000000002,2076.364625,-64.0625,0.0
167,1899,0.1035005,-0.00850912,2076.364625,-89.6875,0.0
168,1900,0.026057499999999997,-0.01227675,2051.260435,89.6875,0.0
169,1901,0.02767605,-0.01566615,2051.260435,64.0625,0.0
170,1902,0.0389805,-0.018019599999999997,2051.260435,38.4375,0.0
171,1903,0.0524509,-0.018613699999999997,2051.260435,12.8125,0.0
172,1904,0.06737950000000001,-0.0177743,2051.260435,-12.8125,0.0
173,1905,0.08288589999999998,-0.0167878,2051.260435,-38.4375,0.0
174,1906,0.0962652,-0.01349065,2051.260435,-64.0625,0.0
175,1907,0.11010299999999999,-0.00854799,2051.260435,-89.6875,0.0
176,1908,0.02787965,-0.011868799999999999,2026.15625,89.6875,0.0
177,1909,0.02754355,-0.0157291,2026.15625,64.0625,0.0
178,1910,0.0380604,-0.017889099999999998,2026.15625,38.4375,0.0
179,1911,0.05326965,-0.018933850000000002,2026.15625,12.8125,0.0
180,1912,0.069478,-0.0187721,2026.15625,-12.8125,0.0
181,1913,0.08478775,-0.0168262,2026.15625,-38.4375,0.0
182,1914,0.10070884999999999,-0.0139186,2026.15625,-64.0625,0.0
183,1915,0.1158925,-0.008942025,2026.15625,-89.6875,0.0
184,1916,0.030626799999999996,-0.012010650000000001,2001.052065,89.6875,0.0
185,1917,0.027094600000000003,-0.015532299999999999,2001.052065,64.0625,0.0
186,1918,0.037794949999999994,-0.01825305,2001.052065,38.4375,0.0
187,1919,0.05341295,-0.01930635,2001.052065,12.8125,0.0
188,1920,0.0704467,-0.0190629,2001.052065,-12.8125,0.0
189,1921,0.08784415000000001,-0.01729205,2001.052065,-38.4375,0.0
190,1922,0.10411849999999999,-0.01378095,2001.052065,-64.0625,0.0
191,1923,0.1213965,-0.00906416,2001.052065,-89.6875,0.0
192,1924,0.0335758,-0.011588600000000001,1975.9479350000001,89.6875,0.0
193,1925,0.027700999999999996,-0.01571675,1975.9479350000001,64.0625,0.0
194,1926,0.036649249999999994,-0.01832295,1975.9479350000001,38.4375,0.0
195,1927,0.05353745,-0.019784799999999998,1975.9479350000001,12.8125,0.0
196,1928,0.0714153,-0.019310300000000002,1975.9479350000001,-12.8125,0.0
197,1929,0.0899619,-0.0176826,1975.9479350000001,-38.4375,0.0
198,1930,0.1086605,-0.01409885,1975.9479350000001,-64.0625,0.0
199,1931,0.127004,-0.008878005,1975.9479350000001,-89.6875,0.0
200,1932,0.03681395,-0.011396650000000001,1950.84375,89.6875,0.0
201,1933,0.0279485,-0.01539705,1950.84375,64.0625,0.0
202,1934,0.0353836,-0.018116350000000003,1950.84375,38.4375,0.0
203,1935,0.052003850000000004,-0.0198906,1950.84375,12.8125,0.0
204,1936,0.0730509,-0.0203235,1950.84375,-12.8125,0.0
205,1937,0.09219135,-0.0177323,1950.84375,-38.4375,0.0
206,1938,0.1121935,-0.014679250000000001,1950.84375,-64.0625,0.0
207,1939,0.132571,-0.010095585,1950.84375,-89.6875,0.0
208,1940,0.0399616,-0.0102436,1925.739565,89.6875,0.0
209,1941,0.027573699999999996,-0.0143772,1925.739565,64.0625,0.0
210,1942,0.0337316,-0.017995749999999998,1925.739565,38.4375,0.0
211,1943,0.05091825,-0.01915725,1925.739565,12.8125,0.0
212,1944,0.07003195000000001,-0.02001085,1925.739565,-12.8125,0.0
213,1945,0.09581769999999999,-0.0204922,1925.739565,-38.4375,0.0
214,1946,0.1169245,-0.0154354,1925.739565,-64.0625,0.0
215,1947,0.1373245,-0.010057285,1925.739565,-89.6875,0.0
216,1948,0.044899800000000004,-0.00968797,1900.6354350000001,89.6875,0.0
217,1949,0.029868,-0.0147774,1900.6354350000001,64.0625,0.0
218,1950,0.029792400000000004,-0.0154679,1900.6354350000001,38.4375,0.0
219,1951,0.0455091,-0.01700215,1900.6354350000001,12.8125,0.0
220,1952,0.0676681,-0.0183073,1900.6354350000001,-12.8125,0.0
221,1953,0.08955015,-0.02085645,1900.6354350000001,-38.4375,0.0
222,1954,0.12327550000000001,-0.0227523,1900.6354350000001,-64.0625,0.0
223,1955,0.14782,-0.01476185,1900.6354350000001,-89.6875,0.0
224,1956,0.048432300000000005,-0.0122424,1875.53125,89.6875,0.0
225,1957,0.02290835,-0.0113318,1875.53125,64.0625,0.0
226,1958,0.0217127,-0.010825149999999999,1875.53125,38.4375,0.0
227,1959,0.038973100000000004,-0.0117515,1875.53125,12.8125,0.0
228,1960,0.0597328,-0.0146638,1875.53125,-12.8125,0.0
229,1961,0.0830468,-0.0168722,1875.53125,-38.4375,0.0
230,1962,0.1100915,-0.02540995,1875.53125,-64.0625,0.0
231,1963,0.1547325,-0.0310869,1875.53125,-89.6875,0.0
232,1964,0.03034,-0.01627895,1850.427065,89.6875,0.0
233,1965,0.0419963,-0.0231576,1850.427065,64.0625,0.0
234,1966,0.049818,-0.022958199999999998,1850.427065,38.4375,0.0
235,1967,0.0644516,-0.022612149999999998,1850.427065,12.8125,0.0
236,1968,0.07934155000000001,-0.018184850000000002,1850.427065,-12.8125,0.0
237,1969,0.09787304999999999,-0.01333745,1850.427065,-38.4375,0.0
238,1970,0.114925,-0.001925185,1850.427065,-64.0625,0.0
239,1971,0.14209,0.01133617,1850.427065,-89.6875,0.0
240,1972,0.030344799999999998,-0.014884999999999999,1825.3229350000001,89.6875,0.0
241,1973,0.03527664999999999,-0.019631750000000003,1825.3229350000001,64.0625,0.0
242,1974,0.046295800000000005,-0.0201875,1825.3229350000001,38.4375,0.0
243,1975,0.06340825,-0.018514700000000002,1825.3229350000001,12.8125,0.0
244,1976,0.08522545000000001,-0.0162845,1825.3229350000001,-12.8125,0.0
245,1977,0.10655350000000001,-0.011499249999999999,1825.3229350000001,-38.4375,0.0
246,1978,0.134822,-0.006383655,1825.3229350000001,-64.0625,0.0
247,1979,0.15528550000000002,-0.0045435350000000005,1825.3229350000001,-89.6875,0.0
248,1980,0.0309592,-0.012785000000000001,1800.21875,89.6875,0.0
249,1981,0.0311803,-0.017372850000000002,1800.21875,64.0625,0.0
250,1982,0.045117700000000004,-0.018617099999999998,1800.21875,38.4375,0.0
251,1983,0.0660841,-0.0179604,1800.21875,12.8125,0.0
252,1984,0.08951955,-0.0162748,1800.21875,-12.8125,0.0
253,1985,0.1161645,-0.013619199999999998,1800.21875,-38.4375,0.0
254,1986,0.1397915,-0.012903900000000001,1800.21875,-64.0625,0.0
255,1987,0.1589295,-0.008146785,1800.21875,-89.6875,0.0
256,1988,0.033566200000000004,-0.0124827,1775.114565,89.6875,0.0
257,1989,0.027834449999999997,-0.0157291,1775.114565,64.0625,0.0
258,1990,0.045116550000000005,-0.017996949999999998,1775.114565,38.4375,0.0
259,1991,0.06801625,-0.01831485,1775.114565,12.8125,0.0
260,1992,0.09378515000000001,-0.01717775,1775.114565,-12.8125,0.0
261,1993,0.11961849999999999,-0.0165667,1775.114565,-38.4375,0.0
262,1994,0.142664,-0.01321245,1775.114565,-64.0625,0.0
263,1995,0.166,-0.00818578,1775.114565,-89.6875,0.0
264,1996,0.036020449999999996,-0.01193435,1750.0104350000001,89.6875,0.0
265,1997,0.0277436,-0.015732,1750.0104350000001,64.0625,0.0
266,1998,0.044099200000000005,-0.01778755,1750.0104350000001,38.4375,0.0
267,1999,0.06947044999999999,-0.0187347,1750.0104350000001,12.8125,0.0
268,2000,0.09612599999999999,-0.0186461,1750.0104350000001,-12.8125,0.0
269,2001,0.121514,-0.01662585,1750.0104350000001,-38.4375,0.0
270,2002,0.14741749999999998,-0.0138764,1750.0104350000001,-64.0625,0.0
271,2003,0.1719395,-0.008957005,1750.0104350000001,-89.6875,0.0
272,2004,0.03900845,-0.0120106,1724.90625,89.6875,0.0
273,2005,0.02731435,-0.015532299999999999,1724.90625,64.0625,0.0
274,2006,0.043858350000000004,-0.01825305,1724.90625,38.4375,0.0
275,2007,0.06969159999999999,-0.01930635,1724.90625,12.8125,0.0
276,2008,0.09714205,-0.0190629,1724.90625,-12.8125,0.0
277,2009,0.12487900000000002,-0.01729205,1724.90625,-38.4375,0.0
278,2010,0.15068600000000001,-0.01378095,1724.90625,-64.0625,0.0
279,2011,0.1774195,-0.00906416,1724.90625,-89.6875,0.0
280,2012,0.0425609,-0.011523,1699.802065,89.6875,0.0
281,2013,0.027973199999999997,-0.0157138,1699.802065,64.0625,0.0
282,2014,0.042314599999999994,-0.018424500000000003,1699.802065,38.4375,0.0
283,2015,0.06977465,-0.01998395,1699.802065,12.8125,0.0
284,2016,0.0981879,-0.019436299999999997,1699.802065,-12.8125,0.0
285,2017,0.12685849999999999,-0.01788305,1699.802065,-38.4375,0.0
286,2018,0.1554865,-0.014141049999999999,1699.802065,-64.0625,0.0
287,2019,0.1831005,-0.008863025,1699.802065,-89.6875,0.0
288,2020,0.04603865,-0.01119065,1674.6979350000001,89.6875,0.0
289,2021,0.028233300000000003,-0.01533405,1674.6979350000001,64.0625,0.0
290,2022,0.04054885,-0.018139000000000002,1674.6979350000001,38.4375,0.0
291,2023,0.06751385000000001,-0.02018945,1674.6979350000001,12.8125,0.0
292,2024,0.0998239,-0.02092015,1674.6979350000001,-12.8125,0.0
293,2025,0.1292295,-0.017953399999999998,1674.6979350000001,-38.4375,0.0
294,2026,0.1588325,-0.014957449999999997,1674.6979350000001,-64.0625,0.0
295,2027,0.188575,-0.01045779,1674.6979350000001,-89.6875,0.0
296,2028,0.04953895,-0.009761619999999999,1649.59375,89.6875,0.0
297,2029,0.0273159,-0.01380905,1649.59375,64.0625,0.0
298,2030,0.037571850000000004,-0.017877900000000002,1649.59375,38.4375,0.0
299,2031,0.06614785000000001,-0.01938415,1649.59375,12.8125,0.0
300,2032,0.0954981,-0.02071945,1649.59375,-12.8125,0.0
301,2033,0.13291950000000002,-0.02179575,1649.59375,-38.4375,0.0
302,2034,0.163918,-0.01591555,1649.59375,-64.0625,0.0
303,2035,0.1929185,-0.01041961,1649.59375,-89.6875,0.0
304,2036,0.054486549999999995,-0.0087023,1624.489565,89.6875,0.0
305,2037,0.029402900000000003,-0.0138567,1624.489565,64.0625,0.0
306,2038,0.032921450000000005,-0.014572749999999999,1624.489565,38.4375,0.0
307,2039,0.059174950000000004,-0.01671525,1624.489565,12.8125,0.0
308,2040,0.0922186,-0.018690900000000003,1624.489565,-12.8125,0.0
309,2041,0.12368149999999999,-0.0226311,1624.489565,-38.4375,0.0
310,2042,0.170417,-0.025856749999999998,1624.489565,-64.0625,0.0
311,2043,0.2046675,-0.01669985,1624.489565,-89.6875,0.0
312,2044,0.0558968,-0.01147685,1599.3854350000001,89.6875,0.0
313,2045,0.0199496,-0.00908896,1599.3854350000001,64.0625,0.0
314,2046,0.0236557,-0.008524090000000002,1599.3854350000001,38.4375,0.0
315,2047,0.0519771,-0.009691724999999998,1599.3854350000001,12.8125,0.0
316,2048,0.08176485,-0.013995999999999998,1599.3854350000001,-12.8125,0.0
317,2049,0.11459549999999999,-0.017542600000000002,1599.3854350000001,-38.4375,0.0
318,2050,0.15092250000000001,-0.0298639,1599.3854350000001,-64.0625,0.0
319,2051,0.210434,-0.039132700000000006,1599.3854350000001,-89.6875,0.0
320,2052,0.034456150000000005,-0.017161700000000002,1574.28125,89.6875,0.0
321,2053,0.04532755000000001,-0.025402349999999997,1574.28125,64.0625,0.0
322,2054,0.05781619999999999,-0.0261338,1574.28125,38.4375,0.0
323,2055,0.079111,-0.02508765,1574.28125,12.8125,0.0
324,2056,0.10197049999999999,-0.0196176,1574.28125,-12.8125,0.0
325,2057,0.1294495,-0.01311,1574.28125,-38.4375,0.0
326,2058,0.155181,0.00210677,1574.28125,-64.0625,0.0
327,2059,0.1966255,0.018924000000000003,1574.28125,-89.6875,0.0
328,2060,0.039725199999999995,-0.0155589,1549.177065,89.6875,0.0
329,2061,0.037618200000000004,-0.0212253,1549.177065,64.0625,0.0
330,2062,0.05198285,-0.021354949999999998,1549.177065,38.4375,0.0
331,2063,0.07820855000000002,-0.01981095,1549.177065,12.8125,0.0
332,2064,0.11039000000000002,-0.0163238,1549.177065,-12.8125,0.0
333,2065,0.14059300000000002,-0.01030854,1549.177065,-38.4375,0.0
334,2066,0.181624,-0.003674005,1549.177065,-64.0625,0.0
335,2067,0.21164150000000004,-0.00278855,1549.177065,-89.6875,0.0
336,2068,0.04235585,-0.013018400000000001,1524.0729350000001,89.6875,0.0
337,2069,0.03168915,-0.017893649999999997,1524.0729350000001,64.0625,0.0
338,2070,0.05082415,-0.01980495,1524.0729350000001,38.4375,0.0
339,2071,0.081705,-0.01820965,1524.0729350000001,12.8125,0.0
340,2072,0.11541000000000001,-0.01672335,1524.0729350000001,-12.8125,0.0
341,2073,0.1539525,-0.01275835,1524.0729350000001,-38.4375,0.0
342,2074,0.1864395,-0.0126467,1524.0729350000001,-64.0625,0.0
343,2075,0.213556,-0.00841089,1524.0729350000001,-89.6875,0.0
344,2076,0.045768100000000006,-0.01137025,1498.96875,89.6875,0.0
345,2077,0.0281986,-0.01595945,1498.96875,64.0625,0.0
346,2078,0.04965665,-0.0181739,1498.96875,38.4375,0.0
347,2079,0.0840294,-0.01953415,1498.96875,12.8125,0.0
348,2080,0.120811,-0.0172709,1498.96875,-12.8125,0.0
349,2081,0.1570365,-0.017685100000000002,1498.96875,-38.4375,0.0
350,2082,0.1899035,-0.013671100000000002,1498.96875,-64.0625,0.0
351,2083,0.2212135,-0.00792269,1498.96875,-89.6875,0.0
352,2084,0.04910665,-0.010404400000000001,1473.864565,89.6875,0.0
353,2085,0.026105000000000003,-0.01446185,1473.864565,64.0625,0.0
354,2086,0.04777245,-0.017673849999999998,1473.864565,38.4375,0.0
355,2087,0.08298710000000001,-0.0191444,1473.864565,12.8125,0.0
356,2088,0.123593,-0.021229150000000002,1473.864565,-12.8125,0.0
357,2089,0.158926,-0.01758465,1473.864565,-38.4375,0.0
358,2090,0.1939885,-0.0154738,1473.864565,-64.0625,0.0
359,2091,0.227209,-0.01121535,1473.864565,-89.6875,0.0
360,2092,0.052327250000000006,-0.00845731,1448.7604350000001,89.6875,0.0
361,2093,0.024051250000000003,-0.0126235,1448.7604350000001,64.0625,0.0
362,2094,0.04337755,-0.01659655,1448.7604350000001,38.4375,0.0
363,2095,0.08203525,-0.01923685,1448.7604350000001,12.8125,0.0
364,2096,0.1179415,-0.02064435,1448.7604350000001,-12.8125,0.0
365,2097,0.16306900000000002,-0.023139100000000003,1448.7604350000001,-38.4375,0.0
366,2098,0.19874599999999998,-0.016738749999999997,1448.7604350000001,-64.0625,0.0
367,2099,0.2313895,-0.01082997,1448.7604350000001,-89.6875,0.0
368,2100,0.0568814,-0.00713507,1423.65625,89.6875,0.0
369,2101,0.024673800000000003,-0.011820250000000001,1423.65625,64.0625,0.0
370,2102,0.039111099999999996,-0.013264999999999999,1423.65625,38.4375,0.0
371,2103,0.07350185000000001,-0.01577655,1423.65625,12.8125,0.0
372,2104,0.114144,-0.0190893,1423.65625,-12.8125,0.0
373,2105,0.15082600000000002,-0.024067150000000002,1423.65625,-38.4375,0.0
374,2106,0.20541500000000001,-0.02863365,1423.65625,-64.0625,0.0
375,2107,0.244772,-0.018548549999999997,1423.65625,-89.6875,0.0
376,2108,0.0563058,-0.009340325,1398.552065,89.6875,0.0
377,2109,0.0139443,-0.006379875,1398.552065,64.0625,0.0
378,2110,0.030002149999999998,-0.00591073,1398.552065,38.4375,0.0
379,2111,0.06599765,-0.00802761,1398.552065,12.8125,0.0
380,2112,0.10117595,-0.0134925,1398.552065,-12.8125,0.0
381,2113,0.139785,-0.0185472,1398.552065,-38.4375,0.0
382,2114,0.18128650000000002,-0.03364855,1398.552065,-64.0625,0.0
383,2115,0.24992150000000002,-0.04532705,1398.552065,-89.6875,0.0
384,2116,8.221815e-15,-1.144135e-15,2602.666625,-89.6875,0.0
385,2117,3.071495e-15,-1.525515e-15,2602.666625,-64.0625,0.0
386,2118,4.106025e-15,-2.28827e-15,2602.666625,-38.4375,0.0
387,2119,4.4891349999999995e-15,-2.574305e-15,2602.666625,-12.8125,0.0
388,2120,3.187415e-15,-1.811545e-15,2602.666625,12.8125,0.0
389,2121,4.421915e-15,1.09646e-15,2602.666625,38.4375,0.0
390,2122,5.901975e-15,3.3609e-15,2602.666625,64.0625,0.0
391,2123,1.474435e-15,4.052145e-16,2602.666625,89.6875,0.0
392,2124,6.354194999999999e-16,-1.906895e-16,2626.0,-89.6875,0.0
393,2125,2.36713e-15,1.334825e-15,2626.0,-64.0625,0.0
394,2126,1.41772e-15,7.627564999999999e-16,2626.0,-38.4375,0.0
395,2127,1.1372949999999999e-15,0.0,2626.0,-12.8125,0.0
396,2128,2.1512499999999996e-15,1.23948e-15,2626.0,12.8125,0.0
397,2129,5.4517099999999996e-15,-2.1452549999999998e-15,2626.0,38.4375,0.0
398,2130,9.595139999999999e-15,-5.529985000000001e-15,2626.0,64.0625,0.0
399,2131,4.85016e-15,-1.573185e-15,2626.0,89.6875,0.0
400,2132,5.073325e-15,-2.860335e-15,2649.333375,-89.6875,0.0
401,2133,3.47977e-15,-1.90689e-15,2649.333375,-64.0625,0.0
402,2134,1.502265e-15,-7.627569999999999e-16,2649.333375,-38.4375,0.0
403,2135,4.65326e-15,-2.6696500000000003e-15,2649.333375,-12.8125,0.0
404,2136,2.98655e-15,-1.7162000000000002e-15,2649.333375,12.8125,0.0
405,2137,3.89942e-15,-2.192925e-15,2649.333375,38.4375,0.0
406,2138,4.6665650000000005e-15,-2.6696500000000003e-15,2649.333375,64.0625,0.0
407,2139,2.87064e-15,-1.573185e-15,2649.333375,89.6875,0.0
408,3835,0.06448155,0.012072600000000001,1198.5,89.6875,0.0
409,3836,0.01781195,0.009377475,1198.5,64.0625,0.0
410,3837,0.03923205,0.009013675,1198.5,38.4375,0.0
411,3838,0.08005465,0.0120644,1198.5,12.8125,0.0
412,3839,0.11964149999999998,0.018055349999999998,1198.5,-12.8125,0.0
413,3840,0.1628055,0.02451205,1198.5,-38.4375,0.0
414,3841,0.20849449999999997,0.0414831,1198.5,-64.0625,0.0
415,3842,0.28574750000000004,0.05388525,1198.5,-89.6875,0.0
416,3843,0.0640255,0.009963304999999999,1173.5,89.6875,0.0
417,3844,0.0311652,0.0162367,1173.5,64.0625,0.0
418,3845,0.05025535,0.01795605,1173.5,38.4375,0.0
419,3846,0.08898825,0.02036225,1173.5,12.8125,0.0
420,3847,0.134559,0.02472345,1173.5,-12.8125,0.0
421,3848,0.17482950000000003,0.0297592,1173.5,-38.4375,0.0
422,3849,0.23597049999999997,0.0358533,1173.5,-64.0625,0.0
423,3850,0.277721,0.0235372,1173.5,-89.6875,0.0
424,3851,0.05842895000000001,0.01231625,1148.5,89.6875,0.0
425,3852,0.0327768,0.0180117,1148.5,64.0625,0.0
426,3853,0.0559631,0.022655550000000003,1148.5,38.4375,0.0
427,3854,0.09659989999999999,0.0246064,1148.5,12.8125,0.0
428,3855,0.137802,0.0247329,1148.5,-12.8125,0.0
429,3856,0.18882100000000002,0.0290862,1148.5,-38.4375,0.0
430,3857,0.226752,0.0209737,1148.5,-64.0625,0.0
431,3858,0.2604805,0.013050899999999999,1148.5,-89.6875,0.0
432,3859,0.05424035,0.01556785,1123.5,89.6875,0.0
433,3860,0.040134199999999995,0.02264265,1123.5,64.0625,0.0
434,3861,0.0604769,0.025342750000000004,1123.5,38.4375,0.0
435,3862,0.09571964999999999,0.0249272,1123.5,12.8125,0.0
436,3863,0.139046,0.02478725,1123.5,-12.8125,0.0
437,3864,0.1831215,0.018681200000000002,1123.5,-38.4375,0.0
438,3865,0.221504,0.0191432,1123.5,-64.0625,0.0
439,3866,0.252347,0.01347715,1123.5,-89.6875,0.0
440,3867,0.050687499999999996,0.019360150000000003,1098.5,89.6875,0.0
441,3868,0.048226500000000005,0.027266949999999998,1098.5,64.0625,0.0
442,3869,0.0635513,0.028122,1098.5,38.4375,0.0
443,3870,0.09520379999999999,0.0270983,1098.5,12.8125,0.0
444,3871,0.13228600000000001,0.022626799999999996,1098.5,-12.8125,0.0
445,3872,0.16825800000000002,0.0162875,1098.5,-38.4375,0.0
446,3873,0.21534999999999999,0.00725349,1098.5,-64.0625,0.0
447,3874,0.248696,0.004992595,1098.5,-89.6875,0.0
448,3875,0.0436243,0.02178645,1073.5,89.6875,0.0
449,3876,0.057452,0.0324561,1073.5,64.0625,0.0
450,3877,0.0722478,0.034087450000000005,1073.5,38.4375,0.0
451,3878,0.0965896,0.03283085,1073.5,12.8125,0.0
452,3879,0.12368599999999999,0.026913450000000005,1073.5,-12.8125,0.0
453,3880,0.15490299999999999,0.018394399999999998,1073.5,-38.4375,0.0
454,3881,0.18318849999999998,0.000375594,1073.5,-64.0625,0.0
455,3882,0.2288115,-0.019943950000000002,1073.5,-89.6875,0.0
456,3883,0.04647955,0.011557399999999999,1048.5,89.6875,0.0
457,3884,0.0207376,0.011557399999999999,1048.5,64.0625,0.0
458,3885,0.0371165,0.011557399999999999,1048.5,38.4375,0.0
459,3886,0.07074359999999999,0.011557399999999999,1048.5,12.8125,0.0
460,3887,0.10635249999999999,0.011557399999999999,1048.5,-12.8125,0.0
461,3888,0.14246400000000004,0.011557399999999999,1048.5,-38.4375,0.0
462,3889,0.1787745,0.011557399999999999,1048.5,-64.0625,0.0
463,3890,0.215182,0.011557399999999999,1048.5,-89.6875,0.0
464,3891,0.044978199999999996,-0.01121955,1373.5,89.6875,0.0
465,3892,0.03949709999999999,-0.0219586,1373.5,64.0625,0.0
466,3893,0.05201525,-0.022449049999999998,1373.5,38.4375,0.0
467,3894,0.0830138,-0.02307415,1373.5,12.8125,0.0
468,3895,0.1188295,-0.0227965,1373.5,-12.8125,0.0
469,3896,0.154839,-0.021039449999999998,1373.5,-38.4375,0.0
470,3897,0.192631,-0.016261699999999997,1373.5,-64.0625,0.0
471,3898,0.22432050000000003,0.0108845,1373.5,-89.6875,0.0
472,3899,0.056066200000000004,-0.014598,1348.5,89.6875,0.0
473,3900,0.023719449999999996,-0.012220249999999998,1348.5,64.0625,0.0
474,3901,0.0373236,-0.009415090000000001,1348.5,38.4375,0.0
475,3902,0.07474625,-0.009382795,1348.5,12.8125,0.0
476,3903,0.11304149999999999,-0.00965342,1348.5,-12.8125,0.0
477,3904,0.152401,-0.01084525,1348.5,-38.4375,0.0
478,3905,0.1904015,-0.01784375,1348.5,-64.0625,0.0
479,3906,0.24146299999999998,-0.03696674999999999,1348.5,-89.6875,0.0
480,3907,0.04121285,-0.01669475,1323.5,89.6875,0.0
481,3908,0.04908295,-0.0277947,1323.5,64.0625,0.0
482,3909,0.064638,-0.0287233,1323.5,38.4375,0.0
483,3910,0.0957132,-0.02895115,1323.5,12.8125,0.0
484,3911,0.125445,-0.021361849999999998,1323.5,-12.8125,0.0
485,3912,0.161009,-0.014463750000000001,1323.5,-38.4375,0.0
486,3913,0.1931855,0.005011935,1323.5,-64.0625,0.0
487,3914,0.2448335,0.02577965,1323.5,-89.6875,0.0
488,3915,0.0526239,-0.015513949999999999,1298.5,89.6875,0.0
489,3916,0.037775249999999996,-0.021009399999999998,1298.5,64.0625,0.0
490,3917,0.0566688,-0.022202149999999997,1298.5,38.4375,0.0
491,3918,0.09119825000000001,-0.02092205,1298.5,12.8125,0.0
492,3919,0.13613,-0.01914675,1298.5,-12.8125,0.0
493,3920,0.17459049999999998,-0.01018404,1298.5,-38.4375,0.0
494,3921,0.22433799999999998,-0.0032509649999999998,1298.5,-64.0625,0.0
495,3922,0.260404,-0.003692985,1298.5,-89.6875,0.0
496,3923,0.05529390000000001,-0.01020401,1273.5,89.6875,0.0
497,3924,0.029251199999999998,-0.015585700000000001,1273.5,64.0625,0.0
498,3925,0.050611750000000004,-0.01830305,1273.5,38.4375,0.0
499,3926,0.09379950000000001,-0.0180412,1273.5,12.8125,0.0
500,3927,0.13494450000000002,-0.018029550000000002,1273.5,-12.8125,0.0
501,3928,0.18994149999999999,-0.018275850000000003,1273.5,-38.4375,0.0
502,3929,0.231149,-0.0154269,1273.5,-64.0625,0.0
503,3930,0.260476,-0.010019610000000002,1273.5,-89.6875,0.0
504,3931,0.0599118,-0.006973885,1248.5,89.6875,0.0
505,3932,0.0235205,-0.01177025,1248.5,64.0625,0.0
506,3933,0.04739335,-0.012411450000000001,1248.5,38.4375,0.0
507,3934,0.08733260000000001,-0.0146801,1248.5,12.8125,0.0
508,3935,0.1352345,-0.016449949999999998,1248.5,-12.8125,0.0
509,3936,0.1777625,-0.0243663,1248.5,-38.4375,0.0
510,3937,0.2356205,-0.029451099999999997,1248.5,-64.0625,0.0
511,3938,0.2763685,-0.0184227,1248.5,-89.6875,0.0
512,3939,0.05719845,-0.00802838,1223.5,89.6875,0.0
513,3940,0.008357745,-0.0038446699999999997,1223.5,64.0625,0.0
514,3941,0.039529800000000004,-0.003854235,1223.5,38.4375,0.0
515,3942,0.08196990000000001,-0.005166905,1223.5,12.8125,0.0
516,3943,0.12191550000000001,-0.01274595,1223.5,-12.8125,0.0
517,3944,0.1642555,-0.018120999999999998,1223.5,-38.4375,0.0
518,3945,0.20875700000000003,-0.0367148,1223.5,-64.0625,0.0
519,3946,0.2822815,-0.0507268,1223.5,-89.6875,0.0
520,5375,4.6659250000000006e-15,1.382495e-15,159.714287,89.6875,0.0
521,5376,4.4031599999999995e-15,1.0487900000000002e-15,159.714287,64.0625,0.0
522,5377,4.5431800000000006e-15,1.001118e-15,159.714287,38.4375,0.0
523,5378,5.77271e-15,2.33594e-15,159.714287,12.8125,0.0
524,5379,3.88664e-15,-1.5255099999999998e-15,159.714287,-12.8125,0.0
525,5380,5.743375e-15,-2.383615e-15,159.714287,-38.4375,0.0
526,5381,4.6914350000000005e-15,-1.4301649999999998e-15,159.714287,-64.0625,0.0
527,5382,5.00638e-15,-1.716205e-15,159.714287,-89.6875,0.0
528,5383,1.49165e-15,-8.581014999999999e-16,135.142857,89.6875,0.0
529,5384,3.391355e-15,-1.954565e-15,135.142857,64.0625,0.0
530,5385,2.358145e-15,-1.27523e-15,135.142857,38.4375,0.0
531,5386,2.192935e-15,4.76723e-16,135.142857,12.8125,0.0
532,5387,2.1940500000000002e-15,2.860335e-16,135.142857,-12.8125,0.0
533,5388,7.08241e-16,-2.860335e-16,135.142857,-38.4375,0.0
534,5389,1.24608e-15,5.720674999999999e-16,135.142857,-64.0625,0.0
535,5390,2.6182749999999997e-15,9.53444e-16,135.142857,-89.6875,0.0
536,5391,3.480375e-15,2.002235e-15,110.5714266,89.6875,0.0
537,5392,3.4892199999999995e-15,2.002235e-15,110.5714266,64.0625,0.0
538,5393,2.007015e-15,-3.5754099999999997e-17,110.5714266,38.4375,0.0
539,5394,4.74345e-15,-1.47784e-15,110.5714266,12.8125,0.0
540,5395,2.03911e-15,1.90689e-16,110.5714266,-12.8125,0.0
541,5396,4.2860100000000004e-15,8.581015e-16,110.5714266,-38.4375,0.0
542,5397,4.607495e-15,1.3348199999999999e-15,110.5714266,-64.0625,0.0
543,5398,3.638595e-15,2.0975799999999997e-15,110.5714266,-89.6875,0.0
544,5399,2.06781e-15,-2.860335e-16,86.0,89.6875,0.0
545,5400,8.296090000000001e-16,-4.528865e-16,86.0,64.0625,0.0
546,5401,2.2068599999999997e-15,-5.48231e-16,86.0,38.4375,0.0
547,5402,9.233515e-16,5.24395e-16,86.0,12.8125,0.0
548,5403,4.1096049999999995e-15,5.720675e-16,86.0,-12.8125,0.0
549,5404,3.063215e-15,-1.3348250000000001e-15,86.0,-38.4375,0.0
550,5405,2.642355e-15,-1.5255099999999998e-15,86.0,-64.0625,0.0
551,5406,1.68661e-15,-7.627564999999999e-16,86.0,-89.6875,0.0
552,5407,2.7347950000000003e-15,-1.001118e-15,61.428571700000006,89.6875,0.0
553,5408,1.012052e-15,5.00559e-16,61.428571700000006,64.0625,0.0
554,5409,3.529155e-16,-1.549349e-16,61.428571700000006,38.4375,0.0
555,5410,1.5283249999999998e-15,7.62757e-16,61.428571700000006,12.8125,0.0
556,5411,2.0723650000000003e-15,2.86034e-16,61.428571700000006,-12.8125,0.0
557,5412,2.401255e-15,-7.627565e-16,61.428571700000006,-38.4375,0.0
558,5413,1.998835e-15,1.144135e-15,61.428571700000006,-64.0625,0.0
559,5414,3.307545e-15,1.9068899999999997e-15,61.428571700000006,-89.6875,0.0
560,5415,3.73321e-15,2.1452549999999998e-15,36.857142450000005,89.6875,0.0
561,5416,4.174119999999999e-15,2.40745e-15,36.857142450000005,64.0625,0.0
562,5417,2.87105e-15,1.6566100000000001e-15,36.857142450000005,38.4375,0.0
563,5418,2.428055e-15,1.382495e-15,36.857142450000005,12.8125,0.0
564,5419,3.6351550000000006e-15,2.09758e-15,36.857142450000005,-12.8125,0.0
565,5420,1.66716e-15,8.581015e-16,36.857142450000005,-38.4375,0.0
566,5421,3.0163850000000002e-15,1.7162049999999999e-15,36.857142450000005,-64.0625,0.0
567,5422,3.6718e-15,2.09758e-15,36.857142450000005,-89.6875,0.0
568,5423,3.725285e-15,2.145255e-15,12.28571415,89.6875,0.0
569,5424,3.160485e-15,1.81155e-15,12.28571415,64.0625,0.0
570,5425,4.22081e-15,2.431285e-15,12.28571415,38.4375,0.0
571,5426,2.481735e-15,1.4301700000000001e-15,12.28571415,12.8125,0.0
572,5427,5.9685800000000004e-15,3.4324050000000002e-15,12.28571415,-12.8125,0.0
573,5428,4.32362e-15,2.47896e-15,12.28571415,-38.4375,0.0
574,5429,2.6565299999999998e-15,1.525515e-15,12.28571415,-64.0625,0.0
575,5430,3.6718e-15,2.0975799999999997e-15,12.28571415,-89.6875,0.0
576,6229,0.06677445,0.0151216,1023.6571349999999,89.6875,0.0
577,6230,0.026809100000000002,0.013177099999999997,1023.6571349999999,64.0625,0.0
578,6231,0.0302525,0.012495549999999998,1023.6571349999999,38.4375,0.0
579,6232,0.06118095,0.0141922,1023.6571349999999,12.8125,0.0
580,6233,0.0944838,0.01904255,1023.6571349999999,-12.8125,0.0
581,6234,0.131468,0.023035,1023.6571349999999,-38.4375,0.0
582,6235,0.172935,0.0369265,1023.6571349999999,-64.0625,0.0
583,6236,0.2417725,0.04696585,1023.6571349999999,-89.6875,0.0
584,6237,0.0636041,0.011910549999999999,998.9714355,89.6875,0.0
585,6238,0.037404,0.01843095,998.9714355,64.0625,0.0
586,6239,0.04195995,0.019646300000000002,998.9714355,38.4375,0.0
587,6240,0.07004055,0.022053,998.9714355,12.8125,0.0
588,6241,0.10688499999999998,0.024584150000000003,998.9714355,-12.8125,0.0
589,6242,0.14160250000000002,0.028934099999999997,998.9714355,-38.4375,0.0
590,6243,0.194674,0.032722100000000004,998.9714355,-64.0625,0.0
591,6244,0.2333735,0.02138255,998.9714355,-89.6875,0.0
592,6245,0.05724335,0.012703550000000001,974.285736,89.6875,0.0
593,6246,0.03502745,0.01840005,974.285736,64.0625,0.0
594,6247,0.04725485,0.0232766,974.285736,38.4375,0.0
595,6248,0.0787483,0.02548835,974.285736,12.8125,0.0
596,6249,0.11048249999999998,0.026899899999999997,974.285736,-12.8125,0.0
597,6250,0.1523835,0.028414799999999997,974.285736,-38.4375,0.0
598,6251,0.186476,0.021266,974.285736,-64.0625,0.0
599,6252,0.21846949999999998,0.0138915,974.285736,-89.6875,0.0
600,6253,0.05285915,0.014523000000000001,949.6000060000001,89.6875,0.0
601,6254,0.0357296,0.01976235,949.6000060000001,64.0625,0.0
602,6255,0.05102055,0.02389225,949.6000060000001,38.4375,0.0
603,6256,0.0800732,0.02619465,949.6000060000001,12.8125,0.0
604,6257,0.11601700000000001,0.0275935,949.6000060000001,-12.8125,0.0
605,6258,0.14763350000000003,0.023898050000000004,949.6000060000001,-38.4375,0.0
606,6259,0.1801105,0.019986200000000003,949.6000060000001,-64.0625,0.0
607,6260,0.21248799999999998,0.013950549999999999,949.6000060000001,-89.6875,0.0
608,6261,0.048398399999999994,0.0147397,924.914276,89.6875,0.0
609,6262,0.036139649999999995,0.0205466,924.914276,64.0625,0.0
610,6263,0.0526918,0.02383855,924.914276,38.4375,0.0
611,6264,0.08307614999999999,0.02649285,924.914276,12.8125,0.0
612,6265,0.1134945,0.0254046,924.914276,-12.8125,0.0
613,6266,0.14517750000000001,0.023923350000000003,924.914276,-38.4375,0.0
614,6267,0.17538199999999998,0.019083750000000003,924.914276,-64.0625,0.0
615,6268,0.20500200000000002,0.011884249999999999,924.914276,-89.6875,0.0
616,6269,0.04434545,0.0155479,900.2285764999999,89.6875,0.0
617,6270,0.035688,0.0203682,900.2285764999999,64.0625,0.0
618,6271,0.05478105,0.0242769,900.2285764999999,38.4375,0.0
619,6272,0.08231184999999999,0.024934199999999997,900.2285764999999,12.8125,0.0
620,6273,0.1124695,0.025508299999999998,900.2285764999999,-12.8125,0.0
621,6274,0.1416825,0.0225058,900.2285764999999,-38.4375,0.0
622,6275,0.1699385,0.01844075,900.2285764999999,-64.0625,0.0
623,6276,0.19749,0.01242415,900.2285764999999,-89.6875,0.0
624,6277,0.04079695,0.01591465,875.5428769999999,89.6875,0.0
625,6278,0.037334149999999997,0.021258649999999997,875.5428769999999,64.0625,0.0
626,6279,0.0554496,0.0238027,875.5428769999999,38.4375,0.0
627,6280,0.0810195,0.025079749999999998,875.5428769999999,12.8125,0.0
628,6281,0.109872,0.023209050000000002,875.5428769999999,-12.8125,0.0
629,6282,0.13829049999999998,0.022258550000000002,875.5428769999999,-38.4375,0.0
630,6283,0.16435300000000003,0.0180087,875.5428769999999,-64.0625,0.0
631,6284,0.1901215,0.011054600000000001,875.5428769999999,-89.6875,0.0
632,6285,0.03787215,0.016756300000000002,850.8571469999999,89.6875,0.0
633,6286,0.040369600000000005,0.02265275,850.8571469999999,64.0625,0.0
634,6287,0.05651635000000001,0.025191900000000003,850.8571469999999,38.4375,0.0
635,6288,0.07872925,0.0240039,850.8571469999999,12.8125,0.0
636,6289,0.10437950000000001,0.02232575,850.8571469999999,-12.8125,0.0
637,6290,0.1342195,0.018865100000000003,850.8571469999999,-38.4375,0.0
638,6291,0.16014449999999997,0.017333300000000003,850.8571469999999,-64.0625,0.0
639,6292,0.18093549999999997,0.011198650000000001,850.8571469999999,-89.6875,0.0
640,6293,0.036895399999999995,0.0190232,826.171417,89.6875,0.0
641,6294,0.046430200000000005,0.025933150000000002,826.171417,64.0625,0.0
642,6295,0.05738455,0.0263122,826.171417,38.4375,0.0
643,6296,0.07587555000000001,0.02486235,826.171417,12.8125,0.0
644,6297,0.09962845000000001,0.021971150000000002,826.171417,-12.8125,0.0
645,6298,0.12268099999999998,0.0164239,826.171417,-38.4375,0.0
646,6299,0.1535495,0.010175839999999998,826.171417,-64.0625,0.0
647,6300,0.1757325,0.00696927,826.171417,-89.6875,0.0
648,6301,0.039310899999999996,0.0212506,801.4857175,89.6875,0.0
649,6302,0.0530813,0.02937495,801.4857175,64.0625,0.0
650,6303,0.06195199999999999,0.02960755,801.4857175,38.4375,0.0
651,6304,0.07728,0.02903535,801.4857175,12.8125,0.0
652,6305,0.0931,0.0241259,801.4857175,-12.8125,0.0
653,6306,0.112911,0.01829335,801.4857175,-38.4375,0.0
654,6307,0.130611,0.00512404,801.4857175,-64.0625,0.0
655,6308,0.158698,-0.010704285000000001,801.4857175,-89.6875,0.0
656,6309,0.05841045,0.016143150000000002,776.8000180000001,89.6875,0.0
657,6310,0.03076615,0.0158767,776.8000180000001,64.0625,0.0
658,6311,0.0292406,0.015347550000000001,776.8000180000001,38.4375,0.0
659,6312,0.04692545,0.0166661,776.8000180000001,12.8125,0.0
660,6313,0.06916920000000001,0.019889749999999998,776.8000180000001,-12.8125,0.0
661,6314,0.09456635,0.02224475,776.8000180000001,-38.4375,0.0
662,6315,0.124907,0.03162605,776.8000180000001,-64.0625,0.0
663,6316,0.175861,0.03735415,776.8000180000001,-89.6875,0.0
664,6317,0.0527657,0.013095950000000002,752.1142880000001,89.6875,0.0
665,6318,0.03841145,0.0196813,752.1142880000001,64.0625,0.0
666,6319,0.038889099999999996,0.02075725,752.1142880000001,38.4375,0.0
667,6320,0.054859599999999994,0.022521199999999998,752.1142880000001,12.8125,0.0
668,6321,0.07845930000000001,0.02414865,752.1142880000001,-12.8125,0.0
669,6322,0.10176089999999999,0.02684905,752.1142880000001,-38.4375,0.0
670,6323,0.1391615,0.0289644,752.1142880000001,-64.0625,0.0
671,6324,0.16608499999999998,0.01898035,752.1142880000001,-89.6875,0.0
672,6325,0.04633670000000001,0.01337895,727.4285580000001,89.6875,0.0
673,6326,0.0355902,0.01910885,727.4285580000001,64.0625,0.0
674,6327,0.043406650000000005,0.0235958,727.4285580000001,38.4375,0.0
675,6328,0.061473099999999996,0.025240949999999998,727.4285580000001,12.8125,0.0
676,6329,0.0811404,0.02613755,727.4285580000001,-12.8125,0.0
677,6330,0.10890249999999999,0.02682315,727.4285580000001,-38.4375,0.0
678,6331,0.131076,0.020610550000000002,727.4285580000001,-64.0625,0.0
679,6332,0.152753,0.0134427,727.4285580000001,-89.6875,0.0
680,6333,0.042372599999999996,0.01475495,702.7428585,89.6875,0.0
681,6334,0.035751149999999995,0.020011750000000002,702.7428585,64.0625,0.0
682,6335,0.045384900000000006,0.02387735,702.7428585,38.4375,0.0
683,6336,0.0626845,0.02600885,702.7428585,12.8125,0.0
684,6337,0.08493600000000001,0.026862800000000003,702.7428585,-12.8125,0.0
685,6338,0.104322,0.0236248,702.7428585,-38.4375,0.0
686,6339,0.12512199999999998,0.01965665,702.7428585,-64.0625,0.0
687,6340,0.146272,0.01346785,702.7428585,-89.6875,0.0
688,6341,0.038346649999999996,0.014874350000000001,678.057159,89.6875,0.0
689,6342,0.035838999999999996,0.020516899999999998,678.057159,64.0625,0.0
690,6343,0.0466349,0.023911599999999998,678.057159,38.4375,0.0
691,6344,0.06468055,0.02623305,678.057159,12.8125,0.0
692,6345,0.08264940000000001,0.025421850000000003,678.057159,-12.8125,0.0
693,6346,0.101875,0.02368705,678.057159,-38.4375,0.0
694,6347,0.1202935,0.0189766,678.057159,-64.0625,0.0
695,6348,0.13881149999999998,0.0119743,678.057159,-89.6875,0.0
696,6349,0.0349302,0.01541315,653.371429,89.6875,0.0
697,6350,0.035535899999999995,0.02039795,653.371429,64.0625,0.0
698,6351,0.048215049999999995,0.0242038,653.371429,38.4375,0.0
699,6352,0.0640278,0.02519395,653.371429,12.8125,0.0
700,6353,0.08170995,0.025491,653.371429,-12.8125,0.0
701,6354,0.09854045,0.0227421,653.371429,-38.4375,0.0
702,6355,0.11496600000000001,0.0185479,653.371429,-64.0625,0.0
703,6356,0.131351,0.0123342,653.371429,-89.6875,0.0
704,6357,0.0322827,0.0156827,628.685699,89.6875,0.0
705,6358,0.03682945,0.02100925,628.685699,64.0625,0.0
706,6359,0.04873855,0.0238176,628.685699,38.4375,0.0
707,6360,0.06349325,0.025265549999999998,628.685699,12.8125,0.0
708,6361,0.07930085,0.0239398,628.685699,-12.8125,0.0
709,6362,0.09540409999999999,0.022531799999999998,628.685699,-38.4375,0.0
710,6363,0.10971449999999999,0.0183383,628.685699,-64.0625,0.0
711,6364,0.124065,0.01153725,628.685699,-89.6875,0.0
712,6365,0.03030965,0.0160808,604.0,89.6875,0.0
713,6366,0.03918195,0.021943950000000004,604.0,64.0625,0.0
714,6367,0.050261700000000006,0.024872700000000005,604.0,38.4375,0.0
715,6368,0.061457000000000005,0.024251349999999998,604.0,12.8125,0.0
716,6369,0.07556099999999999,0.0230881,604.0,-12.8125,0.0
717,6370,0.09159314999999998,0.0204567,604.0,-38.4375,0.0
718,6371,0.105337,0.0179888,604.0,-64.0625,0.0
719,6372,0.115497,0.0116475,604.0,-89.6875,0.0
720,6373,0.03166935,0.01783775,579.314301,89.6875,0.0
721,6374,0.04449495,0.02468275,579.314301,64.0625,0.0
722,6375,0.05033865,0.025201150000000002,579.314301,38.4375,0.0
723,6376,0.0598042,0.024394149999999996,579.314301,12.8125,0.0
724,6377,0.0718103,0.02240665,579.314301,-12.8125,0.0
725,6378,0.0837833,0.018508950000000003,579.314301,-38.4375,0.0
726,6379,0.09908544999999999,0.01393355,579.314301,-64.0625,0.0
727,6380,0.1089175,0.009371480000000001,579.314301,-89.6875,0.0
728,6381,0.038478200000000004,0.0202291,554.6285710000001,89.6875,0.0
729,6382,0.04843839999999999,0.0266753,554.6285710000001,64.0625,0.0
730,6383,0.052945349999999995,0.02675555,554.6285710000001,38.4375,0.0
731,6384,0.060732100000000004,0.0265615,554.6285710000001,12.8125,0.0
732,6385,0.06787920000000001,0.023278649999999998,554.6285710000001,-12.8125,0.0
733,6386,0.07691819999999999,0.0190836,554.6285710000001,-38.4375,0.0
734,6387,0.08383475,0.01042445,554.6285710000001,-64.0625,0.0
735,6388,0.09347025,-0.0010925730000000001,554.6285710000001,-89.6875,0.0
736,6389,0.0525309,0.01754245,529.942841,89.6875,0.0
737,6390,0.03593675,0.01884405,529.942841,64.0625,0.0
738,6391,0.0319216,0.0182918,529.942841,38.4375,0.0
739,6392,0.03728165,0.0191218,529.942841,12.8125,0.0
740,6393,0.0471162,0.02062295,529.942841,-12.8125,0.0
741,6394,0.05973375,0.021259049999999998,529.942841,-38.4375,0.0
742,6395,0.07820865,0.026133700000000003,529.942841,-64.0625,0.0
743,6396,0.11045449999999998,0.0275731,529.942841,-89.6875,0.0
744,6397,0.044648400000000005,0.014541249999999999,505.25712599999997,89.6875,0.0
745,6398,0.0406958,0.02117065,505.25712599999997,64.0625,0.0
746,6399,0.03835075,0.021996500000000002,505.25712599999997,38.4375,0.0
747,6400,0.043432349999999995,0.02300945,505.25712599999997,12.8125,0.0
748,6401,0.05310385,0.02361555,505.25712599999997,-12.8125,0.0
749,6402,0.0642771,0.024640350000000002,505.25712599999997,-38.4375,0.0
750,6403,0.0850991,0.02500545,505.25712599999997,-64.0625,0.0
751,6404,0.0995808,0.016446950000000002,505.25712599999997,-89.6875,0.0
752,6405,0.03828125,0.0143586,480.5714264999999,89.6875,0.0
753,6406,0.03725465,0.02004085,480.5714264999999,64.0625,0.0
754,6407,0.04179835,0.02404975,480.5714264999999,38.4375,0.0
755,6408,0.04765535,0.02499555,480.5714264999999,12.8125,0.0
756,6409,0.05515250000000001,0.025328499999999997,480.5714264999999,-12.8125,0.0
757,6410,0.06785665,0.025040849999999996,480.5714264999999,-38.4375,0.0
758,6411,0.07728035,0.01980945,480.5714264999999,-64.0625,0.0
759,6412,0.08796065,0.012822749999999999,480.5714264999999,-89.6875,0.0
760,6413,0.0351998,0.015391950000000001,455.88571199999996,89.6875,0.0
761,6414,0.03666785,0.0204922,455.88571199999996,64.0625,0.0
762,6415,0.04198425,0.0239955,455.88571199999996,38.4375,0.0
763,6416,0.048928299999999994,0.0258773,455.88571199999996,12.8125,0.0
764,6417,0.0572121,0.0259869,455.88571199999996,-12.8125,0.0
765,6418,0.06379870000000001,0.023246549999999998,455.88571199999996,-38.4375,0.0
766,6419,0.0719127,0.019085249999999998,455.88571199999996,-64.0625,0.0
767,6420,0.0811623,0.01284845,455.88571199999996,-89.6875,0.0
768,6421,0.0319053,0.0154048,431.199997,89.6875,0.0
769,6422,0.036394899999999994,0.020821350000000002,431.199997,64.0625,0.0
770,6423,0.0425876,0.024126949999999998,431.199997,38.4375,0.0
771,6424,0.049754450000000006,0.025944000000000002,431.199997,12.8125,0.0
772,6425,0.055685200000000004,0.025467550000000005,431.199997,-12.8125,0.0
773,6426,0.06150739999999999,0.0231864,431.199997,-38.4375,0.0
774,6427,0.06736534999999999,0.01871955,431.199997,-64.0625,0.0
775,6428,0.07383885,0.0118733,431.199997,-89.6875,0.0
776,6429,0.029915999999999998,0.015850049999999997,406.514282,89.6875,0.0
777,6430,0.035679199999999994,0.020576149999999998,406.514282,64.0625,0.0
778,6431,0.0433662,0.02422915,406.514282,38.4375,0.0
779,6432,0.049578250000000004,0.025649449999999997,406.514282,12.8125,0.0
780,6433,0.05483930000000001,0.02534455,406.514282,-12.8125,0.0
781,6434,0.0590953,0.023015550000000003,406.514282,-38.4375,0.0
782,6435,0.06224715,0.0183518,406.514282,-64.0625,0.0
783,6436,0.0668809,0.01207615,406.514282,-89.6875,0.0
784,6437,0.0278532,0.0155729,381.82856749999996,89.6875,0.0
785,6438,0.036349900000000004,0.0208517,381.82856749999996,64.0625,0.0
786,6439,0.04348205000000001,0.02392495,381.82856749999996,38.4375,0.0
787,6440,0.04956334999999999,0.025492050000000002,381.82856749999996,12.8125,0.0
788,6441,0.053948750000000004,0.02516475,381.82856749999996,-12.8125,0.0
789,6442,0.056215100000000004,0.022717,381.82856749999996,-38.4375,0.0
790,6443,0.0582091,0.0185976,381.82856749999996,-64.0625,0.0
791,6444,0.05988705,0.01188825,381.82856749999996,-89.6875,0.0
792,6445,0.027794450000000002,0.01589205,357.142853,89.6875,0.0
793,6446,0.036622299999999997,0.020692799999999997,357.142853,64.0625,0.0
794,6447,0.04420315,0.023982450000000002,357.142853,38.4375,0.0
795,6448,0.049288,0.02522715,357.142853,12.8125,0.0
796,6449,0.0521904,0.02461045,357.142853,-12.8125,0.0
797,6450,0.05426595000000001,0.02268725,357.142853,-38.4375,0.0
798,6451,0.05366975,0.01842505,357.142853,-64.0625,0.0
799,6452,0.053108249999999996,0.01199755,357.142853,-89.6875,0.0
800,6453,0.0275711,0.015492,332.457138,89.6875,0.0
801,6454,0.0387857,0.02138435,332.457138,64.0625,0.0
802,6455,0.045285650000000004,0.0243792,332.457138,38.4375,0.0
803,6456,0.04766985,0.02452445,332.457138,12.8125,0.0
804,6457,0.050317,0.023747650000000002,332.457138,-12.8125,0.0
805,6458,0.0514634,0.0220252,332.457138,-38.4375,0.0
806,6459,0.05022205,0.01861035,332.457138,-64.0625,0.0
807,6460,0.0458263,0.01194425,332.457138,-89.6875,0.0
808,6461,0.03224515,0.016792750000000002,307.771423,89.6875,0.0
809,6462,0.042998800000000004,0.02330795,307.771423,64.0625,0.0
810,6463,0.044519199999999995,0.0240909,307.771423,38.4375,0.0
811,6464,0.04629285,0.0237251,307.771423,12.8125,0.0
812,6465,0.0474222,0.0227918,307.771423,-12.8125,0.0
813,6466,0.0479032,0.0206415,307.771423,-38.4375,0.0
814,6467,0.0461785,0.01788005,307.771423,-64.0625,0.0
815,6468,0.03910455,0.01190335,307.771423,-89.6875,0.0
816,6469,0.04164129999999999,0.019284000000000003,283.0857085,89.6875,0.0
817,6470,0.044176850000000004,0.02394835,283.0857085,64.0625,0.0
818,6471,0.04403245,0.023525650000000002,283.0857085,38.4375,0.0
819,6472,0.045717400000000005,0.02381415,283.0857085,12.8125,0.0
820,6473,0.045235199999999996,0.0221541,283.0857085,-12.8125,0.0
821,6474,0.0436963,0.0197706,283.0857085,-38.4375,0.0
822,6475,0.040106249999999996,0.01605805,283.0857085,-64.0625,0.0
823,6476,0.028063199999999996,0.009303585,283.0857085,-89.6875,0.0
824,6477,0.034256850000000005,0.016328799999999997,258.40000150000003,89.6875,0.0
825,6478,0.03642605,0.02058475,258.40000150000003,64.0625,0.0
826,6479,0.037351499999999996,0.0211545,258.40000150000003,38.4375,0.0
827,6480,0.0392053,0.022097600000000002,258.40000150000003,12.8125,0.0
828,6481,0.03976165,0.022326900000000004,258.40000150000003,-12.8125,0.0
829,6482,0.03930865,0.021820100000000002,258.40000150000003,-38.4375,0.0
830,6483,0.040718550000000006,0.0221414,258.40000150000003,-64.0625,0.0
831,6484,0.04286665,0.01844705,258.40000150000003,-89.6875,0.0
832,6485,0.0266876,0.01457925,233.71428650000001,89.6875,0.0
833,6486,0.0383031,0.021994,233.71428650000001,64.0625,0.0
834,6487,0.040215,0.023086,233.71428650000001,38.4375,0.0
835,6488,0.0395891,0.02272305,233.71428650000001,12.8125,0.0
836,6489,0.040165400000000004,0.02279975,233.71428650000001,-12.8125,0.0
837,6490,0.04114695,0.023299300000000002,233.71428650000001,-38.4375,0.0
838,6491,0.0414007,0.0226572,233.71428650000001,-64.0625,0.0
839,6492,0.032239199999999996,0.01514325,233.71428650000001,-89.6875,0.0
840,6493,0.0260603,0.0148112,209.028572,89.6875,0.0
841,6494,0.0386885,0.0222152,209.028572,64.0625,0.0
842,6495,0.0406923,0.0234268,209.028572,38.4375,0.0
843,6496,0.040234900000000004,0.02303405,209.028572,12.8125,0.0
844,6497,0.0401885,0.02292325,209.028572,-12.8125,0.0
845,6498,0.04150145,0.023199499999999998,209.028572,-38.4375,0.0
846,6499,0.03859685,0.02139415,209.028572,-64.0625,0.0
847,6500,0.026220649999999998,0.01433125,209.028572,-89.6875,0.0
848,6501,0.032971799999999996,0.016669499999999997,184.34285749999998,89.6875,0.0
849,6502,0.038244299999999995,0.021634350000000004,184.34285749999998,64.0625,0.0
850,6503,0.0394409,0.02237305,184.34285749999998,38.4375,0.0
851,6504,0.04105725,0.02324035,184.34285749999998,12.8125,0.0
852,6505,0.041103,0.02307285,184.34285749999998,-12.8125,0.0
853,6506,0.038898150000000006,0.021641,184.34285749999998,-38.4375,0.0
854,6507,0.036794,0.020310099999999998,184.34285749999998,-64.0625,0.0
855,6508,0.02737515,0.01488545,184.34285749999998,-89.6875,0.0
