,Element,S.Mises.mean,S.S12.mean,intpointx,intpointy,intpointz
0,1,7.291135e-15,2.6696500000000003e-15,2649.333375,-13.2644758,100.75370025000001
1,2,8.087890000000001e-15,3.432405e-15,2626.0,-13.2644758,100.75370025000001
2,3,5.84545e-15,-1.1441369999999998e-15,2602.666625,-13.2644758,100.75370025000001
3,4,3.7369650000000006e-15,1.52551e-15,2649.333375,-38.8894758,93.88750075
4,5,6.623995e-15,1.525515e-15,2626.0,-38.8894758,93.88750075
5,6,4.33697e-15,1.525515e-15,2602.666625,-38.8894758,93.88750075
6,7,8.088085000000001e-15,7.627565e-16,2649.333375,-61.86422350000001,80.623024
7,8,2.123385e-15,7.627565e-16,2626.0,-61.86422350000001,80.623024
8,9,8.199695e-15,7.627564999999999e-16,2602.666625,-61.86422350000001,80.623024
9,10,7.022865e-15,3.81378e-15,2649.333375,-80.623024,61.8642235
10,11,5.73008e-16,0.0,2626.0,-80.623024,61.8642235
11,12,6.12393e-15,-7.627565e-16,2602.666625,-80.623024,61.8642235
12,13,4.993035e-15,2.28827e-15,2649.333375,-93.88750075,38.8894758
13,14,4.88766e-15,-1.525515e-15,2626.0,-93.88750075,38.8894758
14,15,8.257154999999999e-15,0.0,2602.666625,-93.88750075,38.8894758
15,16,5.297095e-15,3.051025e-15,2649.333375,-100.75370025000001,13.2644758
16,17,2.01324e-15,0.0,2626.0,-100.75370025000001,13.2644758
17,18,2.5743549999999996e-15,-7.627565e-16,2602.666625,-100.75370025000001,13.2644758
18,19,0.0252561,0.01338425,2578.447875,-13.2644758,100.75370025000001
19,20,0.023797400000000003,0.013495,2553.34375,-13.2644758,100.75370025000001
20,21,0.023836999999999997,0.013485399999999998,2528.239625,-13.2644758,100.75370025000001
21,22,0.026701249999999996,0.013494599999999999,2503.135375,-13.2644758,100.75370025000001
22,23,0.03040345,0.013467899999999998,2478.03125,-13.2644758,100.75370025000001
23,24,0.036342650000000004,0.01337195,2452.927125,-13.2644758,100.75370025000001
24,25,0.04307865,0.013508649999999997,2427.822875,-13.2644758,100.75370025000001
25,26,0.0449173,0.013079799999999999,2402.71875,-13.2644758,100.75370025000001
26,27,0.0303513,0.01382205,2377.614625,-13.2644758,100.75370025000001
27,28,0.0361595,0.013683200000000001,2352.510375,-13.2644758,100.75370025000001
28,29,0.04183115,0.013800550000000002,2327.40625,-13.2644758,100.75370025000001
29,30,0.0480103,0.0136721,2302.302125,-13.2644758,100.75370025000001
30,31,0.054940249999999996,0.01372345,2277.197875,-13.2644758,100.75370025000001
31,32,0.06187864999999999,0.0136785,2252.09375,-13.2644758,100.75370025000001
32,33,0.06740705000000001,0.013687149999999999,2226.989625,-13.2644758,100.75370025000001
33,34,0.07538465,0.01352105,2201.885375,-13.2644758,100.75370025000001
34,35,0.0836573,0.0138771,2176.78125,-13.2644758,100.75370025000001
35,36,0.08145240000000001,0.013021999999999999,2151.677125,-13.2644758,100.75370025000001
36,37,0.059893749999999996,0.0139465,2126.572875,-13.2644758,100.75370025000001
37,38,0.07151035,0.013785350000000002,2101.46875,-13.2644758,100.75370025000001
38,39,0.0774792,0.01370965,2076.364625,-13.2644758,100.75370025000001
39,40,0.08443095,0.013876300000000001,2051.260435,-13.2644758,100.75370025000001
40,41,0.09197444999999999,0.01361745,2026.15625,-13.2644758,100.75370025000001
41,42,0.0991127,0.013793,2001.0520649999999,-13.2644758,100.75370025000001
42,43,0.1064945,0.013851599999999999,1975.947935,-13.2644758,100.75370025000001
43,44,0.111481,0.01376305,1950.84375,-13.2644758,100.75370025000001
44,45,0.12007799999999999,0.013701850000000002,1925.7395649999999,-13.2644758,100.75370025000001
45,46,0.129127,0.0140824,1900.635435,-13.2644758,100.75370025000001
46,47,0.122338,0.012952250000000002,1875.53125,-13.2644758,100.75370025000001
47,48,0.09884244999999998,0.0141792,1850.4270649999999,-13.2644758,100.75370025000001
48,49,0.11531,0.01371575,1825.322935,-13.2644758,100.75370025000001
49,50,0.12091299999999999,0.01371155,1800.21875,-13.2644758,100.75370025000001
50,51,0.127658,0.0139028,1775.1145649999999,-13.2644758,100.75370025000001
51,52,0.13603150000000003,0.01356265,1750.010435,-13.2644758,100.75370025000001
52,53,0.143221,0.013793,1724.90625,-13.2644758,100.75370025000001
53,54,0.15078249999999999,0.013906400000000001,1699.8020649999999,-13.2644758,100.75370025000001
54,55,0.15516649999999998,0.013736599999999998,1674.697935,-13.2644758,100.75370025000001
55,56,0.1642345,0.0137,1649.59375,-13.2644758,100.75370025000001
56,57,0.173962,0.0141519,1624.4895649999999,-13.2644758,100.75370025000001
57,58,0.162699,0.012719499999999998,1599.385435,-13.2644758,100.75370025000001
58,59,0.142321,0.014906450000000002,1574.28125,-13.2644758,100.75370025000001
59,60,0.16353800000000002,0.0134267,1549.1770649999999,-13.2644758,100.75370025000001
60,61,0.169073,0.014052849999999999,1524.072935,-13.2644758,100.75370025000001
61,62,0.17609550000000002,0.0136283,1498.96875,-13.2644758,100.75370025000001
62,63,0.18258249999999998,0.013334200000000001,1473.8645649999999,-13.2644758,100.75370025000001
63,64,0.1919065,0.0128045,1448.760435,-13.2644758,100.75370025000001
64,65,0.20223449999999998,0.0135769,1423.65625,-13.2644758,100.75370025000001
65,66,0.18840049999999997,0.01155755,1398.5520649999999,-13.2644758,100.75370025000001
66,67,0.012689335,0.004956905,2578.447875,-38.8894758,93.88750075
67,68,0.009515470000000002,0.00503917,2553.34375,-38.8894758,93.88750075
68,69,0.010742400000000001,0.0049981850000000005,2528.239625,-38.8894758,93.88750075
69,70,0.01811685,0.00501558,2503.135375,-38.8894758,93.88750075
70,71,0.024284350000000003,0.0049983449999999995,2478.03125,-38.8894758,93.88750075
71,72,0.033917,0.005182994999999999,2452.927125,-38.8894758,93.88750075
72,73,0.04143165,0.00531742,2427.822875,-38.8894758,93.88750075
73,74,0.04438065000000001,0.00482681,2402.71875,-38.8894758,93.88750075
74,75,0.02628175,0.005481445,2377.614625,-38.8894758,93.88750075
75,76,0.0355809,0.005089385,2352.510375,-38.8894758,93.88750075
76,77,0.0433438,0.0051857399999999994,2327.40625,-38.8894758,93.88750075
77,78,0.05153155,0.00533809,2302.302125,-38.8894758,93.88750075
78,79,0.0597834,0.005257905,2277.197875,-38.8894758,93.88750075
79,80,0.06845845,0.005644215,2252.09375,-38.8894758,93.88750075
80,81,0.0745507,0.00553897,2226.989625,-38.8894758,93.88750075
81,82,0.0852268,0.005875505,2201.885375,-38.8894758,93.88750075
82,83,0.09256465,0.006136245,2176.78125,-38.8894758,93.88750075
83,84,0.09074535,0.005065725,2151.677125,-38.8894758,93.88750075
84,85,0.06846825000000001,0.006047475,2126.572875,-38.8894758,93.88750075
85,86,0.0824984,0.00465226,2101.46875,-38.8894758,93.88750075
86,87,0.0901791,0.00536134,2076.364625,-38.8894758,93.88750075
87,88,0.09781305000000001,0.005147870000000001,2051.260435,-38.8894758,93.88750075
88,89,0.106714,0.00554119,2026.15625,-38.8894758,93.88750075
89,90,0.1143075,0.005548225,2001.0520649999999,-38.8894758,93.88750075
90,91,0.1234265,0.005942744999999999,1975.947935,-38.8894758,93.88750075
91,92,0.12850650000000002,0.005960429999999999,1950.84375,-38.8894758,93.88750075
92,93,0.14012249999999998,0.00625485,1925.7395649999999,-38.8894758,93.88750075
93,94,0.14743,0.00687731,1900.635435,-38.8894758,93.88750075
94,95,0.1404785,0.004978160000000001,1875.53125,-38.8894758,93.88750075
95,96,0.1168045,0.00629774,1850.4270649999999,-38.8894758,93.88750075
96,97,0.135889,0.00413151,1825.322935,-38.8894758,93.88750075
97,98,0.1436615,0.005152225,1800.21875,-38.8894758,93.88750075
98,99,0.1504235,0.0049577,1775.1145649999999,-38.8894758,93.88750075
99,100,0.16021950000000001,0.00544721,1750.010435,-38.8894758,93.88750075
100,101,0.1674955,0.005548225,1724.90625,-38.8894758,93.88750075
101,102,0.176966,0.006036730000000001,1699.8020649999999,-38.8894758,93.88750075
102,103,0.181178,0.006150605,1674.697935,-38.8894758,93.88750075
103,104,0.193712,0.0064639699999999994,1649.59375,-38.8894758,93.88750075
104,105,0.200955,0.00739806,1624.4895649999999,-38.8894758,93.88750075
105,106,0.1890285,0.00472789,1599.385435,-38.8894758,93.88750075
106,107,0.168066,0.00560738,1574.28125,-38.8894758,93.88750075
107,108,0.192741,0.00364789,1549.1770649999999,-38.8894758,93.88750075
108,109,0.2012195,0.0040741449999999995,1524.072935,-38.8894758,93.88750075
109,110,0.20865250000000002,0.00510176,1498.96875,-38.8894758,93.88750075
110,111,0.21543800000000002,0.0049121749999999995,1473.8645649999999,-38.8894758,93.88750075
111,112,0.227742,0.006107035,1448.760435,-38.8894758,93.88750075
112,113,0.23476300000000003,0.006708695000000001,1423.65625,-38.8894758,93.88750075
113,114,0.219697,0.004176325,1398.5520649999999,-38.8894758,93.88750075
114,115,0.010117845,-0.003709725,2578.447875,-61.86422350000001,80.623024
115,116,0.007808815,-0.004031685,2553.34375,-61.86422350000001,80.623024
116,117,0.0110146,-0.00389351,2528.239625,-61.86422350000001,80.623024
117,118,0.01900255,-0.00384444,2503.135375,-61.86422350000001,80.623024
118,119,0.025727,-0.00376204,2478.03125,-61.86422350000001,80.623024
119,120,0.03531095,-0.003804635,2452.927125,-61.86422350000001,80.623024
120,121,0.044411549999999994,-0.003515885,2427.822875,-61.86422350000001,80.623024
121,122,0.04674615,-0.0035199050000000003,2402.71875,-61.86422350000001,80.623024
122,123,0.03169855,-0.00334001,2377.614625,-61.86422350000001,80.623024
123,124,0.04264185,-0.003933995,2352.510375,-61.86422350000001,80.623024
124,125,0.0497397,-0.003449845,2327.40625,-61.86422350000001,80.623024
125,126,0.057417850000000006,-0.0034584200000000002,2302.302125,-61.86422350000001,80.623024
126,127,0.06568470000000001,-0.003194395,2277.197875,-61.86422350000001,80.623024
127,128,0.07425854999999999,-0.0033548750000000002,2252.09375,-61.86422350000001,80.623024
128,129,0.08119225000000001,-0.003135195,2226.989625,-61.86422350000001,80.623024
129,130,0.09226319999999999,-0.00323878,2201.885375,-61.86422350000001,80.623024
130,131,0.1027501,-0.00246645,2176.78125,-61.86422350000001,80.623024
131,132,0.09931645,-0.00286294,2151.677125,-61.86422350000001,80.623024
132,133,0.08101520000000001,-0.003347765,2126.572875,-61.86422350000001,80.623024
133,134,0.09696835000000001,-0.0038153749999999998,2101.46875,-61.86422350000001,80.623024
134,135,0.10300325,-0.003484005,2076.364625,-61.86422350000001,80.623024
135,136,0.1093575,-0.0028435,2051.260435,-61.86422350000001,80.623024
136,137,0.1176635,-0.0032282400000000003,2026.15625,-61.86422350000001,80.623024
137,138,0.125589,-0.0028696249999999998,2001.0520649999999,-61.86422350000001,80.623024
138,139,0.13455050000000002,-0.003061335,1975.947935,-61.86422350000001,80.623024
139,140,0.1412405,-0.0029718599999999998,1950.84375,-61.86422350000001,80.623024
140,141,0.153669,-0.0028481,1925.7395649999999,-61.86422350000001,80.623024
141,142,0.165611,-0.001813289,1900.635435,-61.86422350000001,80.623024
142,143,0.156023,-0.0024097,1875.53125,-61.86422350000001,80.623024
143,144,0.1363435,-0.003567315,1850.4270649999999,-61.86422350000001,80.623024
144,145,0.1583025,-0.004283945,1825.322935,-61.86422350000001,80.623024
145,146,0.1629565,-0.00363283,1800.21875,-61.86422350000001,80.623024
146,147,0.1679175,-0.002813455,1775.1145649999999,-61.86422350000001,80.623024
147,148,0.176594,-0.003267305,1750.010435,-61.86422350000001,80.623024
148,149,0.1842975,-0.0028696299999999998,1724.90625,-61.86422350000001,80.623024
149,150,0.1934885,-0.00302227,1699.8020649999999,-61.86422350000001,80.623024
150,151,0.199815,-0.003001905,1674.697935,-61.86422350000001,80.623024
151,152,0.2136495,-0.00269927,1649.59375,-61.86422350000001,80.623024
152,153,0.2269805,-0.001344717,1624.4895649999999,-61.86422350000001,80.623024
153,154,0.211403,-0.002190156,1599.385435,-61.86422350000001,80.623024
154,155,0.192247,-0.0046588,1574.28125,-61.86422350000001,80.623024
155,156,0.221193,-0.006610675,1549.1770649999999,-61.86422350000001,80.623024
156,157,0.2253215,-0.0043378800000000006,1524.072935,-61.86422350000001,80.623024
157,158,0.23094549999999997,-0.00425645,1498.96875,-61.86422350000001,80.623024
158,159,0.238,-0.003350025,1473.8645649999999,-61.86422350000001,80.623024
159,160,0.251282,-0.0033602650000000003,1448.760435,-61.86422350000001,80.623024
160,161,0.2646635,-0.000936889,1423.65625,-61.86422350000001,80.623024
161,162,0.24498949999999997,-0.002570835,1398.5520649999999,-61.86422350000001,80.623024
162,163,0.022924899999999998,-0.0126793,2578.447875,-80.623024,61.8642235
163,164,0.02238865,-0.01269375,2553.34375,-80.623024,61.8642235
164,165,0.0238738,-0.012536249999999999,2528.239625,-80.623024,61.8642235
165,166,0.02865285,-0.012443099999999999,2503.135375,-80.623024,61.8642235
166,167,0.03374275,-0.012712349999999999,2478.03125,-80.623024,61.8642235
167,168,0.042094,-0.0127015,2452.927125,-80.623024,61.8642235
168,169,0.04963745,-0.01298425,2427.822875,-80.623024,61.8642235
169,170,0.0537377,-0.013209599999999998,2402.71875,-80.623024,61.8642235
170,171,0.042894699999999994,-0.01122895,2377.614625,-80.623024,61.8642235
171,172,0.05197675,-0.0117301,2352.510375,-80.623024,61.8642235
172,173,0.057520049999999996,-0.0114358,2327.40625,-80.623024,61.8642235
173,174,0.0634603,-0.01145325,2302.302125,-80.623024,61.8642235
174,175,0.07197034999999999,-0.01217095,2277.197875,-80.623024,61.8642235
175,176,0.08016220000000002,-0.011897600000000001,2252.09375,-80.623024,61.8642235
176,177,0.08661495,-0.012741799999999998,2226.989625,-80.623024,61.8642235
177,178,0.09881205,-0.0126951,2201.885375,-80.623024,61.8642235
178,179,0.10828225,-0.012990849999999998,2176.78125,-80.623024,61.8642235
179,180,0.10930315,-0.013566149999999999,2151.677125,-80.623024,61.8642235
180,181,0.09504030000000001,-0.009674735,2126.572875,-80.623024,61.8642235
181,182,0.10846275,-0.010954865000000001,2101.46875,-80.623024,61.8642235
182,183,0.1121415,-0.0101347,2076.364625,-80.623024,61.8642235
183,184,0.1172465,-0.01085765,2051.260435,-80.623024,61.8642235
184,185,0.1254505,-0.0110966,2026.15625,-80.623024,61.8642235
185,186,0.1329865,-0.011937900000000001,2001.0520649999999,-80.623024,61.8642235
186,187,0.14253100000000002,-0.011939350000000001,1975.947935,-80.623024,61.8642235
187,188,0.1482865,-0.0129926,1950.84375,-80.623024,61.8642235
188,189,0.16304849999999999,-0.013205499999999998,1925.7395649999999,-80.623024,61.8642235
189,190,0.1742905,-0.0133001,1900.635435,-80.623024,61.8642235
190,191,0.1714485,-0.014454849999999998,1875.53125,-80.623024,61.8642235
191,192,0.155841,-0.008556015,1850.4270649999999,-80.623024,61.8642235
192,193,0.173132,-0.01040598,1825.322935,-80.623024,61.8642235
193,194,0.175213,-0.009416,1800.21875,-80.623024,61.8642235
194,195,0.1780195,-0.010358005,1775.1145649999999,-80.623024,61.8642235
195,196,0.18694349999999998,-0.01089935,1750.010435,-80.623024,61.8642235
196,197,0.1939635,-0.011937900000000001,1724.90625,-80.623024,61.8642235
197,198,0.20412699999999998,-0.0121366,1699.8020649999999,-80.623024,61.8642235
198,199,0.2092635,-0.013492299999999999,1674.697935,-80.623024,61.8642235
199,200,0.2264185,-0.013924200000000001,1649.59375,-80.623024,61.8642235
200,201,0.2393675,-0.013849,1624.4895649999999,-80.623024,61.8642235
201,202,0.23275400000000002,-0.0155736,1599.385435,-80.623024,61.8642235
202,203,0.216638,-0.01002773,1574.28125,-80.623024,61.8642235
203,204,0.236771,-0.011241155,1549.1770649999999,-80.623024,61.8642235
204,205,0.2392745,-0.01171,1524.072935,-80.623024,61.8642235
205,206,0.2415275,-0.011096749999999999,1498.96875,-80.623024,61.8642235
206,207,0.24866549999999998,-0.0140587,1473.8645649999999,-80.623024,61.8642235
207,208,0.2653605,-0.013527750000000002,1448.760435,-80.623024,61.8642235
208,209,0.2785195,-0.014436850000000001,1423.65625,-80.623024,61.8642235
209,210,0.270139,-0.0158611,1398.5520649999999,-80.623024,61.8642235
210,211,0.0352963,-0.020215900000000002,2578.447875,-93.88750075,38.8894758
211,212,0.035528950000000004,-0.02040385,2553.34375,-93.88750075,38.8894758
212,213,0.03760235,-0.02092285,2528.239625,-93.88750075,38.8894758
213,214,0.0416154,-0.021289950000000002,2503.135375,-93.88750075,38.8894758
214,215,0.045045299999999996,-0.02127855,2478.03125,-93.88750075,38.8894758
215,216,0.05240575,-0.0220565,2452.927125,-93.88750075,38.8894758
216,217,0.0600798,-0.022242900000000003,2427.822875,-93.88750075,38.8894758
217,218,0.0623434,-0.023084100000000003,2402.71875,-93.88750075,38.8894758
218,219,0.050955150000000005,-0.0165748,2377.614625,-93.88750075,38.8894758
219,220,0.05872925,-0.017586,2352.510375,-93.88750075,38.8894758
220,221,0.0639604,-0.01893495,2327.40625,-93.88750075,38.8894758
221,222,0.07110695,-0.01974735,2302.302125,-93.88750075,38.8894758
222,223,0.07794024999999999,-0.0200558,2277.197875,-93.88750075,38.8894758
223,224,0.08693110000000001,-0.021344550000000004,2252.09375,-93.88750075,38.8894758
224,225,0.0924031,-0.0211806,2226.989625,-93.88750075,38.8894758
225,226,0.103771,-0.02312475,2201.885375,-93.88750075,38.8894758
226,227,0.11710899999999999,-0.024326849999999997,2176.78125,-93.88750075,38.8894758
227,228,0.115927,-0.026341450000000002,2151.677125,-93.88750075,38.8894758
228,229,0.10117765000000001,-0.012445099999999999,2126.572875,-93.88750075,38.8894758
229,230,0.1139245,-0.014455949999999999,2101.46875,-93.88750075,38.8894758
230,231,0.1164915,-0.0168763,2076.364625,-93.88750075,38.8894758
231,232,0.1226465,-0.01834415,2051.260435,-93.88750075,38.8894758
232,233,0.1315575,-0.0191763,2026.15625,-93.88750075,38.8894758
233,234,0.13769900000000002,-0.0199169,2001.0520649999999,-93.88750075,38.8894758
234,235,0.1481325,-0.02168035,1975.947935,-93.88750075,38.8894758
235,236,0.1531475,-0.02169595,1950.84375,-93.88750075,38.8894758
236,237,0.166325,-0.024688,1925.7395649999999,-93.88750075,38.8894758
237,238,0.18405699999999997,-0.02704425,1900.635435,-93.88750075,38.8894758
238,239,0.1783845,-0.030282149999999997,1875.53125,-93.88750075,38.8894758
239,240,0.1624445,-0.00827047,1850.4270649999999,-93.88750075,38.8894758
240,241,0.17987950000000003,-0.011509700000000001,1825.322935,-93.88750075,38.8894758
241,242,0.17866500000000002,-0.015048099999999998,1800.21875,-93.88750075,38.8894758
242,243,0.18346800000000002,-0.01755965,1775.1145649999999,-93.88750075,38.8894758
243,244,0.1933245,-0.018590250000000003,1750.010435,-93.88750075,38.8894758
244,245,0.198723,-0.0199169,1724.90625,-93.88750075,38.8894758
245,246,0.21019150000000003,-0.0222664,1699.8020649999999,-93.88750075,38.8894758
246,247,0.214499,-0.022480399999999998,1674.697935,-93.88750075,38.8894758
247,248,0.2293655,-0.026516249999999998,1649.59375,-93.88750075,38.8894758
248,249,0.251057,-0.029990500000000003,1624.4895649999999,-93.88750075,38.8894758
249,250,0.24097249999999998,-0.03445675,1599.385435,-93.88750075,38.8894758
250,251,0.22394950000000002,-0.005874755000000001,1574.28125,-93.88750075,38.8894758
251,252,0.246102,-0.01120865,1549.1770649999999,-93.88750075,38.8894758
252,253,0.23972899999999997,-0.0152547,1524.072935,-93.88750075,38.8894758
253,254,0.2473995,-0.021347,1498.96875,-93.88750075,38.8894758
254,255,0.2539205,-0.021221499999999997,1473.8645649999999,-93.88750075,38.8894758
255,256,0.268398,-0.02772465,1448.760435,-93.88750075,38.8894758
256,257,0.29361950000000003,-0.03143815,1423.65625,-93.88750075,38.8894758
257,258,0.2810985,-0.0374253,1398.5520649999999,-93.88750075,38.8894758
258,259,0.0469171,-0.026848250000000004,2578.447875,-100.75370025000001,13.2644758
259,260,0.05100525,-0.0293899,2553.34375,-100.75370025000001,13.2644758
260,261,0.0513,-0.0289268,2528.239625,-100.75370025000001,13.2644758
261,262,0.0543526,-0.0295628,2503.135375,-100.75370025000001,13.2644758
262,263,0.0580435,-0.0300362,2478.03125,-100.75370025000001,13.2644758
263,264,0.06188529999999999,-0.030039399999999997,2452.927125,-100.75370025000001,13.2644758
264,265,0.0723584,-0.033768049999999994,2427.822875,-100.75370025000001,13.2644758
265,266,0.07679449999999999,-0.033113199999999995,2402.71875,-100.75370025000001,13.2644758
266,267,0.05205905,-0.0198054,2377.614625,-100.75370025000001,13.2644758
267,268,0.062939,-0.02406375,2352.510375,-100.75370025000001,13.2644758
268,269,0.0717164,-0.0266695,2327.40625,-100.75370025000001,13.2644758
269,270,0.07778385,-0.02749045,2302.302125,-100.75370025000001,13.2644758
270,271,0.0845717,-0.027979650000000002,2277.197875,-100.75370025000001,13.2644758
271,272,0.09108859999999999,-0.02905525,2252.09375,-100.75370025000001,13.2644758
272,273,0.09786395,-0.030321099999999997,2226.989625,-100.75370025000001,13.2644758
273,274,0.10544230000000002,-0.0309417,2201.885375,-100.75370025000001,13.2644758
274,275,0.1206385,-0.03885115,2176.78125,-100.75370025000001,13.2644758
275,276,0.129504,-0.040549550000000004,2151.677125,-100.75370025000001,13.2644758
276,277,0.09786684999999999,-0.011446870000000001,2126.572875,-100.75370025000001,13.2644758
277,278,0.1084015,-0.01803655,2101.46875,-100.75370025000001,13.2644758
278,279,0.11849399999999999,-0.02443385,2076.364625,-100.75370025000001,13.2644758
279,280,0.1253925,-0.025695950000000002,2051.260435,-100.75370025000001,13.2644758
280,281,0.1333335,-0.0267866,2026.15625,-100.75370025000001,13.2644758
281,282,0.1402215,-0.02782275,2001.0520649999999,-100.75370025000001,13.2644758
282,283,0.147633,-0.0292025,1975.947935,-100.75370025000001,13.2644758
283,284,0.1542865,-0.0313009,1950.84375,-100.75370025000001,13.2644758
284,285,0.16332249999999998,-0.0325153,1925.7395649999999,-100.75370025000001,13.2644758
285,286,0.18060500000000002,-0.0448408,1900.635435,-100.75370025000001,13.2644758
286,287,0.191907,-0.04917225,1875.53125,-100.75370025000001,13.2644758
287,288,0.1585405,-0.00261753,1850.4270649999999,-100.75370025000001,13.2644758
288,289,0.16745,-0.01176317,1825.322935,-100.75370025000001,13.2644758
289,290,0.176823,-0.02254245,1800.21875,-100.75370025000001,13.2644758
290,291,0.1834015,-0.024384199999999998,1775.1145649999999,-100.75370025000001,13.2644758
291,292,0.19216100000000003,-0.0262212,1750.010435,-100.75370025000001,13.2644758
292,293,0.199233,-0.02782275,1724.90625,-100.75370025000001,13.2644758
293,294,0.20693999999999999,-0.02976795,1699.8020649999999,-100.75370025000001,13.2644758
294,295,0.2133035,-0.032612699999999994,1674.697935,-100.75370025000001,13.2644758
295,296,0.223182,-0.03440675,1649.59375,-100.75370025000001,13.2644758
296,297,0.24220750000000002,-0.05111415,1624.4895649999999,-100.75370025000001,13.2644758
297,298,0.25522999999999996,-0.05800155,1599.385435,-100.75370025000001,13.2644758
298,299,0.2204365,0.0044765099999999995,1574.28125,-100.75370025000001,13.2644758
299,300,0.2274115,-0.007499385000000001,1549.1770649999999,-100.75370025000001,13.2644758
300,301,0.2361935,-0.02336395,1524.072935,-100.75370025000001,13.2644758
301,302,0.242593,-0.0271958,1498.96875,-100.75370025000001,13.2644758
302,303,0.251781,-0.0324032,1473.8645649999999,-100.75370025000001,13.2644758
303,304,0.2625145,-0.0356022,1448.760435,-100.75370025000001,13.2644758
304,305,0.2837155,-0.0556586,1423.65625,-100.75370025000001,13.2644758
305,306,0.298726,-0.06443800000000001,1398.5520649999999,-100.75370025000001,13.2644758
306,307,0.17902300000000002,0.017833250000000002,1373.5,-13.2644758,100.75370025000001
307,308,0.183452,0.0065775799999999995,1348.5,-13.2644758,100.75370025000001
308,309,0.183382,0.014471399999999999,1323.5,-13.2644758,100.75370025000001
309,310,0.205856,0.012610449999999999,1298.5,-13.2644758,100.75370025000001
310,311,0.213588,0.01283345,1273.5,-13.2644758,100.75370025000001
311,312,0.2224075,0.013434500000000002,1248.5,-13.2644758,100.75370025000001
312,313,0.20975850000000001,0.010978385,1223.5,-13.2644758,100.75370025000001
313,314,0.211195,0.009135765,1373.5,-38.8894758,93.88750075
314,315,0.21791100000000002,-0.0017697049999999999,1348.5,-38.8894758,93.88750075
315,316,0.21725350000000002,0.00660227,1323.5,-38.8894758,93.88750075
316,317,0.242623,0.003272615,1298.5,-38.8894758,93.88750075
317,318,0.2566055,0.004507705,1273.5,-38.8894758,93.88750075
318,319,0.260401,0.005313975,1248.5,-38.8894758,93.88750075
319,320,0.2461935,0.0020567149999999998,1223.5,-38.8894758,93.88750075
320,321,0.2369865,-0.0021330150000000003,1373.5,-61.86422350000001,80.623024
321,322,0.24431650000000002,-0.007818084999999999,1348.5,-61.86422350000001,80.623024
322,323,0.242668,-0.0057040300000000006,1323.5,-61.86422350000001,80.623024
323,324,0.27552350000000003,-0.00669314,1298.5,-61.86422350000001,80.623024
324,325,0.287034,-0.004750445,1273.5,-61.86422350000001,80.623024
325,326,0.293506,-0.002048945,1248.5,-61.86422350000001,80.623024
326,327,0.2715625,-0.003166525,1223.5,-61.86422350000001,80.623024
327,328,0.25367300000000004,-0.011698549999999999,1373.5,-80.623024,61.8642235
328,329,0.261616,-0.015639,1348.5,-80.623024,61.8642235
329,330,0.2680035,-0.01092168,1323.5,-80.623024,61.8642235
330,331,0.2904685,-0.01437015,1298.5,-80.623024,61.8642235
331,332,0.303391,-0.0127296,1273.5,-80.623024,61.8642235
332,333,0.306039,-0.012467815,1248.5,-80.623024,61.8642235
333,334,0.29683000000000004,-0.01530585,1223.5,-80.623024,61.8642235
334,335,0.262137,-0.020107099999999996,1373.5,-93.88750075,38.8894758
335,336,0.2654365,-0.02017805,1348.5,-93.88750075,38.8894758
336,337,0.276127,-0.00871229,1323.5,-93.88750075,38.8894758
337,338,0.2976925,-0.012204650000000001,1298.5,-93.88750075,38.8894758
338,339,0.3007285,-0.022199749999999997,1273.5,-93.88750075,38.8894758
339,340,0.3201875,-0.029899000000000002,1248.5,-93.88750075,38.8894758
340,341,0.30849649999999995,-0.0352678,1223.5,-93.88750075,38.8894758
341,342,0.2555365,-0.03495495,1373.5,-100.75370025000001,13.2644758
342,343,0.26400199999999996,-0.024223,1348.5,-100.75370025000001,13.2644758
343,344,0.2723265,0.006761065,1323.5,-100.75370025000001,13.2644758
344,345,0.2774615,-0.010027504999999999,1298.5,-100.75370025000001,13.2644758
345,346,0.29024949999999994,-0.029943249999999998,1273.5,-100.75370025000001,13.2644758
346,347,0.3097865,-0.0541508,1248.5,-100.75370025000001,13.2644758
347,348,0.329643,-0.0659442,1223.5,-100.75370025000001,13.2644758
348,349,0.21416849999999998,-0.015370600000000002,1198.5,-13.2644758,100.75370025000001
349,350,0.2283925,-0.01759265,1173.5,-13.2644758,100.75370025000001
350,351,0.211862,-0.016999849999999997,1148.5,-13.2644758,100.75370025000001
351,352,0.200414,-0.01784975,1123.5,-13.2644758,100.75370025000001
352,353,0.1973245,-0.01740465,1098.5,-13.2644758,100.75370025000001
353,354,0.170672,-0.019045150000000004,1073.5,-13.2644758,100.75370025000001
354,355,0.1690425,-0.0107215,1048.5,-13.2644758,100.75370025000001
355,356,0.2491405,-0.00477873,1198.5,-38.8894758,93.88750075
356,357,0.265395,-0.007206775,1173.5,-38.8894758,93.88750075
357,358,0.2519965,-0.00657327,1148.5,-38.8894758,93.88750075
358,359,0.237761,-0.005645375,1123.5,-38.8894758,93.88750075
359,360,0.2323185,-0.005215445,1098.5,-38.8894758,93.88750075
360,361,0.2006245,-0.007040865,1073.5,-38.8894758,93.88750075
361,362,0.2003975,-0.00298942,1048.5,-38.8894758,93.88750075
362,363,0.275432,0.00422869,1198.5,-61.86422350000001,80.623024
363,364,0.2979655,0.00286257,1173.5,-61.86422350000001,80.623024
364,365,0.279731,0.0054681999999999994,1148.5,-61.86422350000001,80.623024
365,366,0.2664455,0.0060582,1123.5,-61.86422350000001,80.623024
366,367,0.26385349999999996,0.00845221,1098.5,-61.86422350000001,80.623024
367,368,0.2268905,0.006583075000000001,1073.5,-61.86422350000001,80.623024
368,369,0.2250115,0.0047513699999999996,1048.5,-61.86422350000001,80.623024
369,370,0.3018725,0.01932675,1198.5,-80.623024,61.8642235
370,371,0.3126945,0.0183628,1173.5,-80.623024,61.8642235
371,372,0.293875,0.0168774,1148.5,-80.623024,61.8642235
372,373,0.28064199999999995,0.017470199999999998,1123.5,-80.623024,61.8642235
373,374,0.281347,0.016516549999999998,1098.5,-80.623024,61.8642235
374,375,0.25322100000000003,0.0160282,1073.5,-80.623024,61.8642235
375,376,0.2408325,0.0119734,1048.5,-80.623024,61.8642235
376,377,0.3160955,0.045613,1198.5,-93.88750075,38.8894758
377,378,0.33000250000000003,0.0368024,1173.5,-93.88750075,38.8894758
378,379,0.297959,0.03360975,1148.5,-93.88750075,38.8894758
379,380,0.2818925,0.02399005,1123.5,-93.88750075,38.8894758
380,381,0.2912465,0.02068625,1098.5,-93.88750075,38.8894758
381,382,0.260855,0.01193205,1073.5,-93.88750075,38.8894758
382,383,0.246555,0.018184449999999998,1048.5,-93.88750075,38.8894758
383,384,0.34132949999999995,0.07755395000000001,1198.5,-100.75370025000001,13.2644758
384,385,0.32178399999999996,0.06710105,1173.5,-100.75370025000001,13.2644758
385,386,0.2917455,0.041983400000000004,1148.5,-100.75370025000001,13.2644758
386,387,0.279794,0.038566800000000005,1123.5,-100.75370025000001,13.2644758
387,388,0.26724950000000003,0.0172385,1098.5,-100.75370025000001,13.2644758
388,389,0.2560365,0.0016958949999999998,1073.5,-100.75370025000001,13.2644758
389,390,0.2416335,0.0229613,1048.5,-100.75370025000001,13.2644758
390,391,2.08763e-15,7.627565e-16,12.28571415,13.2644758,100.75370025000001
391,392,3.243645e-15,-7.627565e-16,36.85714245,13.2644758,100.75370025000001
392,393,1.1019054999999998e-15,3.813785e-16,61.428571700000006,13.2644758,100.75370025000001
393,394,2.38122e-15,-7.627569999999999e-16,86.0,13.2644758,100.75370025000001
394,395,2.3007050000000004e-15,3.8137849999999997e-16,110.5714266,13.2644758,100.75370025000001
395,396,4.525105e-15,-2.28827e-15,135.142857,13.2644758,100.75370025000001
396,397,5.32935e-15,1.9068899999999998e-16,159.714287,13.2644758,100.75370025000001
397,398,2.3599599999999998e-15,-1.144133e-15,12.28571415,38.8894758,93.88750075
398,399,3.970425e-15,2.0975799999999997e-15,36.85714245,38.8894758,93.88750075
399,400,3.0290549999999997e-15,-1.144135e-15,61.428571700000006,38.8894758,93.88750075
400,401,2.85515e-15,-1.52551e-15,86.0,38.8894758,93.88750075
401,402,2.18329e-15,3.8137849999999997e-16,110.5714266,38.8894758,93.88750075
402,403,4.955915e-16,0.0,135.142857,38.8894758,93.88750075
403,404,5.5937900000000005e-15,5.720675e-16,159.714287,38.8894758,93.88750075
404,405,1.7175949999999999e-15,7.627565e-16,12.28571415,61.86422350000001,80.623024
405,406,3.299025e-15,7.627565e-16,36.85714245,61.86422350000001,80.623024
406,407,1.703555e-15,7.627565e-16,61.428571700000006,61.86422350000001,80.623024
407,408,2.18499e-15,0.0,86.0,61.86422350000001,80.623024
408,409,3.37332e-15,-7.627565e-16,110.5714266,61.86422350000001,80.623024
409,410,1.5452749999999999e-15,-3.8137799999999996e-16,135.142857,61.86422350000001,80.623024
410,411,6.1061e-15,3.8137849999999997e-16,159.714287,61.86422350000001,80.623024
411,412,3.5272899999999998e-15,-1.9068899999999997e-15,12.28571415,80.623024,61.8642235
412,413,2.36802e-15,1.144134e-15,36.85714245,80.623024,61.8642235
413,414,5.49648e-15,1.144135e-15,61.428571700000006,80.623024,61.8642235
414,415,5.4174150000000005e-15,-1.1441335e-15,86.0,80.623024,61.8642235
415,416,3.6626850000000005e-15,-1.144135e-15,110.5714266,80.623024,61.8642235
416,417,1.349585e-15,3.8137849999999997e-16,135.142857,80.623024,61.8642235
417,418,4.2083299999999995e-15,-7.627565e-16,159.714287,80.623024,61.8642235
418,419,1.2132229999999999e-15,0.0,12.28571415,93.88750075,38.8894758
419,420,2.578285e-15,-7.627565e-16,36.85714245,93.88750075,38.8894758
420,421,9.16435e-16,3.8137849999999997e-16,61.428571700000006,93.88750075,38.8894758
421,422,1.2487249999999998e-15,-3.8137799999999996e-16,86.0,93.88750075,38.8894758
422,423,2.41149e-15,7.62757e-16,110.5714266,93.88750075,38.8894758
423,424,1.71441e-15,-7.627565e-16,135.142857,93.88750075,38.8894758
424,425,1.352925e-15,7.627565e-16,159.714287,93.88750075,38.8894758
425,426,7.94078e-16,-3.81378e-16,12.28571415,100.75370025000001,13.2644758
426,427,1.046041e-15,0.0,36.85714245,100.75370025000001,13.2644758
427,428,2.0772049999999998e-15,0.0,61.428571700000006,100.75370025000001,13.2644758
428,429,1.307945e-15,-3.8137849999999997e-16,86.0,100.75370025000001,13.2644758
429,430,1.09896e-15,0.0,110.5714266,100.75370025000001,13.2644758
430,431,2.22879e-15,-1.144135e-15,135.142857,100.75370025000001,13.2644758
431,432,2.222605e-15,1.1441349999999998e-15,159.714287,100.75370025000001,13.2644758
432,433,0.18684050000000002,-0.0165666,1023.6571349999999,-13.2644758,100.75370025000001
433,434,0.198787,-0.0185384,998.9714355,-13.2644758,100.75370025000001
434,435,0.18673299999999998,-0.01768025,974.285736,-13.2644758,100.75370025000001
435,436,0.174785,-0.01814955,949.6000060000001,-13.2644758,100.75370025000001
436,437,0.16862749999999999,-0.0180939,924.914276,-13.2644758,100.75370025000001
437,438,0.1589335,-0.01826575,900.2285764999999,-13.2644758,100.75370025000001
438,439,0.1473725,-0.018144399999999998,875.5428769999999,-13.2644758,100.75370025000001
439,440,0.13904499999999997,-0.0185668,850.8571469999999,-13.2644758,100.75370025000001
440,441,0.130922,-0.018014950000000002,826.171417,-13.2644758,100.75370025000001
441,442,0.1114765,-0.01904185,801.4857175,-13.2644758,100.75370025000001
442,443,0.1392845,-0.016979150000000002,776.800018,-13.2644758,100.75370025000001
443,444,0.145867,-0.01845115,752.114288,-13.2644758,100.75370025000001
444,445,0.13456,-0.017828,727.4285580000001,-13.2644758,100.75370025000001
445,446,0.12335549999999999,-0.018148650000000002,702.7428585,-13.2644758,100.75370025000001
446,447,0.116428,-0.01812255,678.057159,-13.2644758,100.75370025000001
447,448,0.10695199999999999,-0.0182371,653.371429,-13.2644758,100.75370025000001
448,449,0.09658775,-0.01814525,628.685699,-13.2644758,100.75370025000001
449,450,0.08801524999999999,-0.01841905,604.0,-13.2644758,100.75370025000001
450,451,0.0797058,-0.0181022,579.314301,-13.2644758,100.75370025000001
451,452,0.0663753,-0.018629299999999998,554.628571,-13.2644758,100.75370025000001
452,453,0.09416905,-0.017569099999999997,529.942841,-13.2644758,100.75370025000001
453,454,0.0957259,-0.018547349999999997,505.25712599999997,-13.2644758,100.75370025000001
454,455,0.0854356,-0.0181758,480.5714265,-13.2644758,100.75370025000001
455,456,0.07540849999999999,-0.018293200000000003,455.885712,-13.2644758,100.75370025000001
456,457,0.0683352,-0.018280900000000003,431.199997,-13.2644758,100.75370025000001
457,458,0.0598916,-0.018308200000000004,406.514282,-13.2644758,100.75370025000001
458,459,0.05177905,-0.01816685,381.8285675,-13.2644758,100.75370025000001
459,460,0.0449828,-0.018375550000000004,357.14285299999995,-13.2644758,100.75370025000001
460,461,0.0382878,-0.018195799999999998,332.457138,-13.2644758,100.75370025000001
461,462,0.0343253,-0.01841495,307.771423,-13.2644758,100.75370025000001
462,463,0.03205395,-0.018117849999999998,283.0857085,-13.2644758,100.75370025000001
463,464,0.037441249999999995,-0.0166812,258.40000150000003,-13.2644758,100.75370025000001
464,465,0.0339499,-0.0169539,233.71428650000001,-13.2644758,100.75370025000001
465,466,0.030497850000000003,-0.0168587,209.028572,-13.2644758,100.75370025000001
466,467,0.03008935,-0.0168344,184.34285749999998,-13.2644758,100.75370025000001
467,468,0.21600799999999998,-0.006313545,1023.6571349999999,-38.8894758,93.88750075
468,469,0.2282995,-0.008970185,998.9714355,-38.8894758,93.88750075
469,470,0.21959,-0.008363645,974.285736,-38.8894758,93.88750075
470,471,0.203383,-0.00748202,949.6000060000001,-38.8894758,93.88750075
471,472,0.19721699999999998,-0.007785785,924.914276,-38.8894758,93.88750075
472,473,0.18583899999999998,-0.00660486,900.2285764999999,-38.8894758,93.88750075
473,474,0.1729575,-0.006877475,875.5428769999999,-38.8894758,93.88750075
474,475,0.16414299999999998,-0.006250495,850.8571469999999,-38.8894758,93.88750075
475,476,0.153036,-0.00583921,826.171417,-38.8894758,93.88750075
476,477,0.13026900000000002,-0.00761032,801.4857175,-38.8894758,93.88750075
477,478,0.158598,-0.006529675,776.800018,-38.8894758,93.88750075
478,479,0.16502,-0.008448355000000001,752.114288,-38.8894758,93.88750075
479,480,0.1559185,-0.00801145,727.4285580000001,-38.8894758,93.88750075
480,481,0.1409655,-0.007381265,702.7428585,-38.8894758,93.88750075
481,482,0.133697,-0.007588965,678.057159,-38.8894758,93.88750075
482,483,0.12234900000000001,-0.00680168,653.371429,-38.8894758,93.88750075
483,484,0.110625,-0.00697823,628.685699,-38.8894758,93.88750075
484,485,0.1006258,-0.0066026850000000005,604.0,-38.8894758,93.88750075
485,486,0.0899807,-0.00636104,579.314301,-38.8894758,93.88750075
486,487,0.07320975,-0.00739419,554.628571,-38.8894758,93.88750075
487,488,0.10300295000000001,-0.006986275,529.942841,-38.8894758,93.88750075
488,489,0.10375859999999999,-0.008188444999999999,505.25712599999997,-38.8894758,93.88750075
489,490,0.0943658,-0.007913705,480.5714265,-38.8894758,93.88750075
490,491,0.0806862,-0.007549155,455.885712,-38.8894758,93.88750075
491,492,0.072664,-0.0076903200000000005,431.199997,-38.8894758,93.88750075
492,493,0.06149545,-0.00732379,406.514282,-38.8894758,93.88750075
493,494,0.0512505,-0.007469675,381.8285675,-38.8894758,93.88750075
494,495,0.04132985,-0.00711614,357.14285299999995,-38.8894758,93.88750075
495,496,0.030663950000000002,-0.0074280449999999994,332.457138,-38.8894758,93.88750075
496,497,0.021830750000000003,-0.007016925,307.771423,-38.8894758,93.88750075
497,498,0.0159213,-0.007561995,283.0857085,-38.8894758,93.88750075
498,499,0.02763695,-0.005136065,258.40000150000003,-38.8894758,93.88750075
499,500,0.02037675,-0.005612405,233.71428650000001,-38.8894758,93.88750075
500,501,0.014128850000000002,-0.005554725,209.028572,-38.8894758,93.88750075
501,502,0.011804470000000001,-0.00532948,184.34285749999998,-38.8894758,93.88750075
502,503,0.24058399999999996,0.00343408,1023.6571349999999,-61.86422350000001,80.623024
503,504,0.2574145,0.0020579433,998.9714355,-61.86422350000001,80.623024
504,505,0.24133300000000002,0.0041232249999999995,974.285736,-61.86422350000001,80.623024
505,506,0.2238625,0.00391559,949.6000060000001,-61.86422350000001,80.623024
506,507,0.2159185,0.004654785,924.914276,-61.86422350000001,80.623024
507,508,0.20475349999999998,0.004161865,900.2285764999999,-61.86422350000001,80.623024
508,509,0.1927015,0.004956905,875.5428769999999,-61.86422350000001,80.623024
509,510,0.1854795,0.004883715,850.8571469999999,-61.86422350000001,80.623024
510,511,0.1786665,0.006558065,826.171417,-61.86422350000001,80.623024
511,512,0.15188600000000002,0.00493004,801.4857175,-61.86422350000001,80.623024
512,513,0.175276,0.003683405,776.800018,-61.86422350000001,80.623024
513,514,0.1848455,0.002807965,752.114288,-61.86422350000001,80.623024
514,515,0.1703045,0.004249975,727.4285580000001,-61.86422350000001,80.623024
515,516,0.15454600000000002,0.00408914,702.7428585,-61.86422350000001,80.623024
516,517,0.1459185,0.004572635,678.057159,-61.86422350000001,80.623024
517,518,0.13476349999999998,0.00424402,653.371429,-61.86422350000001,80.623024
518,519,0.12341250000000001,0.0047833500000000004,628.685699,-61.86422350000001,80.623024
519,520,0.11450250000000001,0.00475696,604.0,-61.86422350000001,80.623024
520,521,0.10617765000000001,0.0058080449999999995,579.314301,-61.86422350000001,80.623024
521,522,0.0866818,0.004680715,554.628571,-61.86422350000001,80.623024
522,523,0.11172185000000001,0.0036357,529.942841,-61.86422350000001,80.623024
523,524,0.1142914,0.0032623599999999997,505.25712599999997,-61.86422350000001,80.623024
524,525,0.10122235,0.004082125,480.5714265,-61.86422350000001,80.623024
525,526,0.08723879999999999,0.0039499949999999995,455.885712,-61.86422350000001,80.623024
526,527,0.07788,0.004193199999999999,431.199997,-61.86422350000001,80.623024
527,528,0.06663195,0.003875235,406.514282,-61.86422350000001,80.623024
528,529,0.05597115,0.00429178,381.8285675,-61.86422350000001,80.623024
529,530,0.045747350000000006,0.00391007,357.14285299999995,-61.86422350000001,80.623024
530,531,0.035357849999999996,0.00445919,332.457138,-61.86422350000001,80.623024
531,532,0.0254208,0.004354805,307.771423,-61.86422350000001,80.623024
532,533,0.015545900000000001,0.00414796,283.0857085,-61.86422350000001,80.623024
533,534,0.0289809,0.00597193,258.40000150000003,-61.86422350000001,80.623024
534,535,0.023099500000000002,0.00631698,233.71428650000001,-61.86422350000001,80.623024
535,536,0.01559825,0.006472775,209.028572,-61.86422350000001,80.623024
536,537,0.012468749999999999,0.00603299,184.34285749999998,-61.86422350000001,80.623024
537,538,0.26513699999999996,0.0200192,1023.6571349999999,-80.623024,61.8642235
538,539,0.271057,0.0183369,998.9714355,-80.623024,61.8642235
539,540,0.25623100000000004,0.01794535,974.285736,-80.623024,61.8642235
540,541,0.23445150000000003,0.018074649999999998,949.6000060000001,-80.623024,61.8642235
541,542,0.2276105,0.0156269,924.914276,-80.623024,61.8642235
542,543,0.21666449999999998,0.016470649999999996,900.2285764999999,-80.623024,61.8642235
543,544,0.2031345,0.0142072,875.5428769999999,-80.623024,61.8642235
544,545,0.2004485,0.014230199999999998,850.8571469999999,-80.623024,61.8642235
545,546,0.19510550000000002,0.014648350000000001,826.171417,-80.623024,61.8642235
546,547,0.17492950000000002,0.013030149999999999,801.4857175,-80.623024,61.8642235
547,548,0.192948,0.01885435,776.800018,-80.623024,61.8642235
548,549,0.19455299999999998,0.0177221,752.114288,-80.623024,61.8642235
549,550,0.181309,0.01732615,727.4285580000001,-80.623024,61.8642235
550,551,0.162844,0.0174301,702.7428585,-80.623024,61.8642235
551,552,0.15496,0.015767549999999998,678.057159,-80.623024,61.8642235
552,553,0.14412049999999998,0.01633005,653.371429,-80.623024,61.8642235
553,554,0.1318415,0.01485175,628.685699,-80.623024,61.8642235
554,555,0.1260465,0.014849399999999999,604.0,-80.623024,61.8642235
555,556,0.11934049999999999,0.015263099999999998,579.314301,-80.623024,61.8642235
556,557,0.1037079,0.014195,554.628571,-80.623024,61.8642235
557,558,0.12286050000000001,0.0173464,529.942841,-80.623024,61.8642235
558,559,0.120417,0.0167944,505.25712599999997,-80.623024,61.8642235
559,560,0.10887949999999999,0.0163733,480.5714265,-80.623024,61.8642235
560,561,0.0938651,0.01648505,455.885712,-80.623024,61.8642235
561,562,0.08542360000000002,0.0155991,431.199997,-80.623024,61.8642235
562,563,0.07468035,0.015934049999999998,406.514282,-80.623024,61.8642235
563,564,0.06437380000000001,0.0151686,381.8285675,-80.623024,61.8642235
564,565,0.055806549999999996,0.015350699999999998,357.14285299999995,-80.623024,61.8642235
565,566,0.04645755,0.014787600000000001,332.457138,-80.623024,61.8642235
566,567,0.04095045,0.0155822,307.771423,-80.623024,61.8642235
567,568,0.032497700000000004,0.014845450000000001,283.0857085,-80.623024,61.8642235
568,569,0.041629799999999995,0.01776495,258.40000150000003,-80.623024,61.8642235
569,570,0.036501650000000004,0.017542300000000004,233.71428650000001,-80.623024,61.8642235
570,571,0.03326825,0.017608,209.028572,-80.623024,61.8642235
571,572,0.03134945,0.01773395,184.34285749999998,-80.623024,61.8642235
572,573,0.2758835,0.043239,1023.6571349999999,-93.88750075,38.8894758
573,574,0.28628,0.03808685,998.9714355,-93.88750075,38.8894758
574,575,0.260747,0.03441999999999999,974.285736,-93.88750075,38.8894758
575,576,0.241742,0.0294699,949.6000060000001,-93.88750075,38.8894758
576,577,0.235031,0.02952055,924.914276,-93.88750075,38.8894758
577,578,0.22225649999999997,0.025660749999999996,900.2285764999999,-93.88750075,38.8894758
578,579,0.2113535,0.02505085,875.5428769999999,-93.88750075,38.8894758
579,580,0.203772,0.02160985,850.8571469999999,-93.88750075,38.8894758
580,581,0.20379399999999998,0.01766465,826.171417,-93.88750075,38.8894758
581,582,0.1829815,0.013822399999999999,801.4857175,-93.88750075,38.8894758
582,583,0.202324,0.03833625,776.800018,-93.88750075,38.8894758
583,584,0.207501,0.034683149999999996,752.114288,-93.88750075,38.8894758
584,585,0.18674600000000002,0.03228495,727.4285580000001,-93.88750075,38.8894758
585,586,0.16989100000000001,0.0287334,702.7428585,-93.88750075,38.8894758
586,587,0.16275099999999998,0.02887725,678.057159,-93.88750075,38.8894758
587,588,0.15031250000000002,0.026304050000000002,653.371429,-93.88750075,38.8894758
588,589,0.140298,0.025787400000000002,628.685699,-93.88750075,38.8894758
589,590,0.1312465,0.02374485,604.0,-93.88750075,38.8894758
590,591,0.1268705,0.0210684,579.314301,-93.88750075,38.8894758
591,592,0.111816,0.01872515,554.628571,-93.88750075,38.8894758
592,593,0.131206,0.033115500000000006,529.942841,-93.88750075,38.8894758
593,594,0.131529,0.030953400000000002,505.25712599999997,-93.88750075,38.8894758
594,595,0.11592150000000001,0.02979185,480.5714265,-93.88750075,38.8894758
595,596,0.1019785,0.027591950000000004,455.885712,-93.88750075,38.8894758
596,597,0.0950588,0.0279063,431.199997,-93.88750075,38.8894758
597,598,0.08409905000000001,0.026589,406.514282,-93.88750075,38.8894758
598,599,0.07631465,0.02655915,381.8285675,-93.88750075,38.8894758
599,600,0.06763820000000001,0.025795899999999997,357.14285299999995,-93.88750075,38.8894758
600,601,0.06025305,0.025595899999999998,332.457138,-93.88750075,38.8894758
601,602,0.0532182,0.024267649999999998,307.771423,-93.88750075,38.8894758
602,603,0.04782405,0.023699150000000002,283.0857085,-93.88750075,38.8894758
603,604,0.0572333,0.028964900000000002,258.40000150000003,-93.88750075,38.8894758
604,605,0.05420085,0.028544399999999998,233.71428650000001,-93.88750075,38.8894758
605,606,0.05049255,0.0282906,209.028572,-93.88750075,38.8894758
606,607,0.0480509,0.027570749999999998,184.34285749999998,-93.88750075,38.8894758
607,608,0.2955125,0.07135620000000001,1023.6571349999999,-100.75370025000001,13.2644758
608,609,0.27958099999999997,0.06441805,998.9714355,-100.75370025000001,13.2644758
609,610,0.255255,0.0450893,974.285736,-100.75370025000001,13.2644758
610,611,0.2424215,0.042834699999999996,949.6000060000001,-100.75370025000001,13.2644758
611,612,0.2333415,0.03969665,924.914276,-100.75370025000001,13.2644758
612,613,0.22338750000000002,0.036338499999999996,900.2285764999999,-100.75370025000001,13.2644758
613,614,0.211595,0.034162700000000004,875.5428769999999,-100.75370025000001,13.2644758
614,615,0.20340999999999998,0.03168605,850.8571469999999,-100.75370025000001,13.2644758
615,616,0.18997350000000002,0.0192488,826.171417,-100.75370025000001,13.2644758
616,617,0.1776965,0.0087297,801.4857175,-100.75370025000001,13.2644758
617,618,0.221016,0.06091845,776.800018,-100.75370025000001,13.2644758
618,619,0.2074265,0.05688985,752.114288,-100.75370025000001,13.2644758
619,620,0.1853895,0.0428554,727.4285580000001,-100.75370025000001,13.2644758
620,621,0.17392950000000001,0.0413894,702.7428585,-100.75370025000001,13.2644758
621,622,0.16469250000000002,0.039136950000000004,678.057159,-100.75370025000001,13.2644758
622,623,0.15521849999999998,0.036898200000000006,653.371429,-100.75370025000001,13.2644758
623,624,0.14463349999999997,0.03560805,628.685699,-100.75370025000001,13.2644758
624,625,0.136058,0.033919950000000004,604.0,-100.75370025000001,13.2644758
625,626,0.1223085,0.026777000000000002,579.314301,-100.75370025000001,13.2644758
626,627,0.108083,0.019167450000000003,554.628571,-100.75370025000001,13.2644758
627,628,0.14868900000000002,0.0501916,529.942841,-100.75370025000001,13.2644758
628,629,0.138461,0.04898569999999999,505.25712599999997,-100.75370025000001,13.2644758
629,630,0.11994250000000001,0.0401841,480.5714265,-100.75370025000001,13.2644758
630,631,0.110574,0.0394751,455.885712,-100.75370025000001,13.2644758
631,632,0.102459,0.0380076,431.199997,-100.75370025000001,13.2644758
632,633,0.09465145,0.037111349999999994,406.514282,-100.75370025000001,13.2644758
633,634,0.0877696,0.0366686,381.8285675,-100.75370025000001,13.2644758
634,635,0.0812856,0.03646625,357.14285299999995,-100.75370025000001,13.2644758
635,636,0.07465084999999999,0.03573645,332.457138,-100.75370025000001,13.2644758
636,637,0.0677845,0.03463505,307.771423,-100.75370025000001,13.2644758
637,638,0.05644275,0.03023475,283.0857085,-100.75370025000001,13.2644758
638,639,0.07890215,0.0410974,258.40000150000003,-100.75370025000001,13.2644758
639,640,0.07737815,0.04287085,233.71428650000001,-100.75370025000001,13.2644758
640,641,0.0710906,0.040763600000000004,209.028572,-100.75370025000001,13.2644758
641,642,0.06613545,0.03798625,184.34285749999998,-100.75370025000001,13.2644758
642,643,4.2346e-15,7.627565e-16,2602.666625,2.435684085,-490.559204
643,644,2.859315e-15,-7.62757e-16,2602.666625,7.307050825,-466.67762749999997
644,645,2.6783e-15,1.5255149999999999e-15,2602.666625,12.178417465,-442.796051
645,646,4.64558e-15,-7.627564999999999e-16,2602.666625,17.049784199999998,-418.9144745
646,647,2.724435e-15,-7.627565e-16,2602.666625,21.921150675,-395.032898
647,648,2.416845e-15,-7.627565e-16,2602.666625,26.792517174999997,-371.1513215
648,649,3.3633649999999998e-15,-1.5255100000000002e-15,2602.666625,31.663883674999997,-347.26974500000006
649,650,4.3218249999999996e-15,7.627569999999999e-16,2602.666625,36.535251599999995,-323.388153
650,651,3.426495e-15,-1.5255099999999998e-15,2602.666625,41.406618099999996,-299.5065765
651,652,1.607715e-15,-7.627565e-16,2602.666625,46.277984599999996,-275.625
652,653,3.442765e-15,1.525515e-15,2602.666625,51.14935299999999,-251.743416
653,654,4.8074899999999996e-15,1.5255100000000002e-15,2602.666625,56.0207195,-227.86183949999997
654,655,3.649855e-15,1.525515e-15,2602.666625,60.89208599999999,-203.98026249999998
655,656,5.09104e-15,1.525515e-15,2602.666625,65.7634525,-180.09868600000001
656,657,4.2070400000000003e-16,0.0,2602.666625,70.634819,-156.2171095
657,658,3.98889e-15,0.0,2602.666625,75.50618739999999,-132.335529
658,659,3.996370000000001e-15,-2.28827e-15,2602.666625,80.377553925,-108.45394885000002
659,660,2.74105e-15,-1.5255149999999999e-15,2602.666625,85.24891852500001,-84.5723686
660,661,2.566175e-15,7.627565e-16,2602.666625,90.120285,-60.69078825
661,662,4.779405e-15,1.5255099999999998e-15,2626.0,2.43568468,-490.559204
662,663,4.443955000000001e-15,7.627565e-16,2626.0,7.307051179999999,-466.67762749999997
663,664,2.563975e-15,7.62756e-16,2626.0,12.1784177,-442.796051
664,665,3.39924e-15,1.52551e-15,2626.0,17.049784199999998,-418.9144745
665,666,2.6430150000000002e-15,1.52551e-15,2626.0,21.9211502,-395.032898
666,667,4.000985e-15,2.2882649999999997e-15,2626.0,26.7925167,-371.1513215
667,668,1.55433e-16,0.0,2626.0,31.6638832,-347.26974500000006
668,669,4.2338e-15,-7.62757e-16,2626.0,36.535251599999995,-323.388153
669,670,6.713155000000001e-16,0.0,2626.0,41.406618099999996,-299.5065765
670,671,4.67365e-15,7.627565e-16,2626.0,46.277984599999996,-275.625
671,672,3.8549900000000003e-16,0.0,2626.0,51.14935299999999,-251.743416
672,673,4.24034e-15,7.627564999999999e-16,2626.0,56.0207195,-227.86183949999997
673,674,2.004505e-15,0.0,2626.0,60.89208599999999,-203.98026249999998
674,675,3.3326500000000002e-15,-1.52551e-15,2626.0,65.7634525,-180.09868600000001
675,676,2.43346e-15,7.627569999999999e-16,2626.0,70.634819,-156.2171095
676,677,4.85367e-15,-1.525515e-15,2626.0,75.50618739999999,-132.335529
677,678,5.503245e-16,0.0,2626.0,80.377552,-108.45394885000002
678,679,2.0096549999999997e-15,0.0,2626.0,85.2489166,-84.5723686
679,680,4.4831849999999995e-15,2.28827e-15,2626.0,90.120285,-60.69078825
680,681,3.6023349999999994e-15,-1.525515e-15,2649.333375,2.435684085,-490.559204
681,682,2.8995200000000002e-15,-1.525515e-15,2649.333375,7.307050825,-466.67762749999997
682,683,4.5143549999999996e-15,-2.28827e-15,2649.333375,12.178417465,-442.796051
683,684,3.0443700000000002e-15,-1.525515e-15,2649.333375,17.049784199999998,-418.9144745
684,685,2.42268e-15,7.627565e-16,2649.333375,21.921150675,-395.032898
685,686,3.42118e-15,-1.5255149999999999e-15,2649.333375,26.792517175,-371.1513215
686,687,4.294605e-15,0.0,2649.333375,31.663883675,-347.26974500000006
687,688,2.519075e-15,-7.627569999999999e-16,2649.333375,36.535251599999995,-323.388153
688,689,2.8963e-15,-1.525515e-15,2649.333375,41.406618099999996,-299.5065765
689,690,4.489120000000001e-15,-2.28827e-15,2649.333375,46.277984599999996,-275.625
690,691,5.767865e-15,-3.05103e-15,2649.333375,51.14935299999999,-251.743416
691,692,2.5231949999999998e-15,7.627565e-16,2649.333375,56.0207195,-227.86183949999997
692,693,2.1360950000000002e-15,0.0,2649.333375,60.89208599999999,-203.98026249999998
693,694,1.080745e-15,0.0,2649.333375,65.7634525,-180.09868600000001
694,695,2.426165e-15,7.627565e-16,2649.333375,70.634819,-156.2171095
695,696,4.1224550000000004e-15,0.0,2649.333375,75.50618739999999,-132.335529
696,697,4.927605e-15,-1.525515e-15,2649.333375,80.377553925,-108.45394885000002
697,698,4.244864999999999e-15,-7.62759e-16,2649.333375,85.248918525,-84.5723686
698,699,3.492645e-15,-1.525515e-15,2649.333375,90.120285,-60.69078825
699,700,0.044551,-0.0167186,2578.447875,-2.435684085,-490.559204
700,701,0.04341465,-0.024812149999999998,2578.447875,-7.307050825,-466.67762749999997
701,702,0.045613850000000004,-0.02624385,2578.447875,-12.178417465,-442.796051
702,703,0.052816499999999995,-0.0301991,2578.447875,-17.049784199999998,-418.9144745
703,704,0.05514580000000001,-0.0314815,2578.447875,-21.921150675,-395.032898
704,705,0.0591,-0.033800649999999995,2578.447875,-26.792517174999997,-371.1513215
705,706,0.05989465000000001,-0.0343544,2578.447875,-31.663883674999997,-347.26974500000006
706,707,0.061856499999999995,-0.0355764,2578.447875,-36.535251599999995,-323.388153
707,708,0.06191775,-0.0356899,2578.447875,-41.406618099999996,-299.5065765
708,709,0.06285075000000001,-0.03627245,2578.447875,-46.277984599999996,-275.625
709,710,0.06264245,-0.03616435,2578.447875,-51.14935299999999,-251.743416
710,711,0.06305720000000001,-0.03638175,2578.447875,-56.0207195,-227.86183949999997
711,712,0.0626621,-0.036095699999999994,2578.447875,-60.89208599999999,-203.98026249999998
712,713,0.06269795,-0.0360281,2578.447875,-65.7634525,-180.09868600000001
713,714,0.061929200000000004,-0.03546615,2578.447875,-70.634819,-156.2171095
714,715,0.06140015,-0.0350267,2578.447875,-75.50618739999999,-132.335529
715,716,0.059790350000000006,-0.033967449999999996,2578.447875,-80.377553925,-108.45394885000002
716,717,0.058217450000000004,-0.0329697,2578.447875,-85.24891852500001,-84.5723686
717,718,0.05485595,-0.03107025,2578.447875,-90.120285,-60.69078825
718,719,0.026723800000000002,-0.01228085,2553.34375,-2.43568468,-490.559204
719,720,0.04382915,-0.025116400000000004,2553.34375,-7.307051179999999,-466.67762749999997
720,721,0.051165350000000005,-0.029048950000000004,2553.34375,-12.1784177,-442.796051
721,722,0.0545451,-0.030867199999999997,2553.34375,-17.049784199999998,-418.9144745
722,723,0.0587356,-0.0332528,2553.34375,-21.9211502,-395.032898
723,724,0.05939029999999999,-0.0338129,2553.34375,-26.7925167,-371.1513215
724,725,0.061303899999999995,-0.035057,2553.34375,-31.6638832,-347.26974500000006
725,726,0.06116389999999999,-0.03513905,2553.34375,-36.535251599999995,-323.388153
726,727,0.06203489999999999,-0.035733299999999996,2553.34375,-41.406618099999996,-299.5065765
727,728,0.061783950000000004,-0.0356539,2553.34375,-46.277984599999996,-275.625
728,729,0.0622283,-0.0359264,2553.34375,-51.14935299999999,-251.743416
729,730,0.0619851,-0.03576075,2553.34375,-56.0207195,-227.86183949999997
730,731,0.0622293,-0.0358388,2553.34375,-60.89208599999999,-203.98026249999998
731,732,0.06191175,-0.03554855,2553.34375,-65.7634525,-180.09868600000001
732,733,0.0619532,-0.03542885,2553.34375,-70.634819,-156.2171095
733,734,0.0612981,-0.034875199999999995,2553.34375,-75.50618739999999,-132.335529
734,735,0.06080309999999999,-0.034393900000000005,2553.34375,-80.377552,-108.45394885000002
735,736,0.05923245,-0.03334185,2553.34375,-85.2489166,-84.5723686
736,737,0.057291150000000006,-0.0321343,2553.34375,-90.120285,-60.69078825
737,738,0.0189843,-0.0109346,2528.239625,-2.43568468,-490.559204
738,739,0.03846165,-0.02205915,2528.239625,-7.307051179999999,-466.67762749999997
739,740,0.051927650000000006,-0.02938105,2528.239625,-12.1784177,-442.796051
740,741,0.05807355,-0.03261145,2528.239625,-17.049784199999998,-418.9144745
741,742,0.059880949999999995,-0.03384425,2528.239625,-21.9211502,-395.032898
742,743,0.06186495,-0.03511785,2528.239625,-26.7925167,-371.1513215
743,744,0.06143955,-0.035129900000000006,2528.239625,-31.6638832,-347.26974500000006
744,745,0.06196725,-0.0355619,2528.239625,-36.535251599999995,-323.388153
745,746,0.06147375,-0.0354121,2528.239625,-41.406618099999996,-299.5065765
746,747,0.061685,-0.035590899999999995,2528.239625,-46.277984599999996,-275.625
747,748,0.0614189,-0.0354593,2528.239625,-51.14935299999999,-251.743416
748,749,0.061626299999999995,-0.03555535,2528.239625,-56.0207195,-227.86183949999997
749,750,0.06153535,-0.03543105,2528.239625,-60.89208599999999,-203.98026249999998
750,751,0.06180655,-0.03547605,2528.239625,-65.7634525,-180.09868600000001
751,752,0.061739999999999996,-0.0352807,2528.239625,-70.634819,-156.2171095
752,753,0.06194415,-0.03519565,2528.239625,-75.50618739999999,-132.335529
753,754,0.06147055,-0.03470155,2528.239625,-80.377552,-108.45394885000002
754,755,0.06067700000000001,-0.0340149,2528.239625,-85.2489166,-84.5723686
755,756,0.0586224,-0.032738149999999994,2528.239625,-90.120285,-60.69078825
756,757,0.021609700000000003,-0.010339250000000001,2503.135375,-2.43568468,-490.559204
757,758,0.0393018,-0.021175649999999997,2503.135375,-7.307051179999999,-466.67762749999997
758,759,0.05209105,-0.028896849999999998,2503.135375,-12.1784177,-442.796051
759,760,0.05869315,-0.03291935,2503.135375,-17.049784199999998,-418.9144745
760,761,0.0621398,-0.03503555,2503.135375,-21.9211502,-395.032898
761,762,0.062111849999999996,-0.03536275,2503.135375,-26.7925167,-371.1513215
762,763,0.06238200000000001,-0.0356441,2503.135375,-31.6638832,-347.26974500000006
763,764,0.061683,-0.03543995,2503.135375,-36.535251599999995,-323.388153
764,765,0.06148555,-0.0354092,2503.135375,-41.406618099999996,-299.5065765
765,766,0.06108425000000001,-0.035251199999999996,2503.135375,-46.277984599999996,-275.625
766,767,0.0610339,-0.035237550000000006,2503.135375,-51.14935299999999,-251.743416
767,768,0.0609736,-0.03517545,2503.135375,-56.0207195,-227.86183949999997
768,769,0.061169799999999996,-0.03522265000000001,2503.135375,-60.89208599999999,-203.98026249999998
769,770,0.061359750000000005,-0.03521815,2503.135375,-65.7634525,-180.09868600000001
770,771,0.061777200000000004,-0.03530080000000001,2503.135375,-70.634819,-156.2171095
771,772,0.0619784,-0.035223649999999995,2503.135375,-75.50618739999999,-132.335529
772,773,0.062224299999999996,-0.0351113,2503.135375,-80.377552,-108.45394885000002
773,774,0.06145795,-0.03439475,2503.135375,-85.2489166,-84.5723686
774,775,0.059092149999999996,-0.032778100000000004,2503.135375,-90.120285,-60.69078825
775,776,0.031175850000000005,-0.010075925,2478.03125,-2.43568468,-490.559204
776,777,0.0438794,-0.0217057,2478.03125,-7.307051179999999,-466.67762749999997
777,778,0.0534639,-0.028778349999999998,2478.03125,-12.1784177,-442.796051
778,779,0.0605624,-0.0336737,2478.03125,-17.049784199999998,-418.9144745
779,780,0.0618319,-0.0350192,2478.03125,-21.9211502,-395.032898
780,781,0.062354349999999996,-0.03546515,2478.03125,-26.7925167,-371.1513215
781,782,0.061872300000000005,-0.0354511,2478.03125,-31.6638832,-347.26974500000006
782,783,0.06131195,-0.0352181,2478.03125,-36.535251599999995,-323.388153
783,784,0.0608707,-0.035081650000000006,2478.03125,-41.406618099999996,-299.5065765
784,785,0.06046634999999999,-0.03489225,2478.03125,-46.277984599999996,-275.625
785,786,0.060365550000000004,-0.034851049999999995,2478.03125,-51.14935299999999,-251.743416
786,787,0.06030675,-0.034793149999999995,2478.03125,-56.0207195,-227.86183949999997
787,788,0.060534050000000006,-0.034855449999999996,2478.03125,-60.89208599999999,-203.98026249999998
788,789,0.0608158,-0.03491269999999999,2478.03125,-65.7634525,-180.09868600000001
789,790,0.061278250000000006,-0.03503534999999999,2478.03125,-70.634819,-156.2171095
790,791,0.061783,-0.0351254,2478.03125,-75.50618739999999,-132.335529
791,792,0.0620318,-0.0350394,2478.03125,-80.377552,-108.45394885000002
792,793,0.06206165,-0.03470235,2478.03125,-85.2489166,-84.5723686
793,794,0.06000610000000001,-0.0329758,2478.03125,-90.120285,-60.69078825
794,795,0.0429613,-0.01092625,2452.927125,-2.43568468,-490.559204
795,796,0.050409449999999995,-0.022204599999999998,2452.927125,-7.307051179999999,-466.67762749999997
796,797,0.059400999999999995,-0.03122815,2452.927125,-12.1784177,-442.796051
797,798,0.059987799999999994,-0.0334235,2452.927125,-17.049784199999998,-418.9144745
798,799,0.06099475,-0.034378650000000004,2452.927125,-21.9211502,-395.032898
799,800,0.06123945,-0.0349443,2452.927125,-26.7925167,-371.1513215
800,801,0.060539800000000005,-0.0346567,2452.927125,-31.6638832,-347.26974500000006
801,802,0.06040355,-0.0347421,2452.927125,-36.535251599999995,-323.388153
802,803,0.0597196,-0.03441165,2452.927125,-41.406618099999996,-299.5065765
803,804,0.059686050000000004,-0.03444875,2452.927125,-46.277984599999996,-275.625
804,805,0.059341649999999996,-0.03425985,2452.927125,-51.14935299999999,-251.743416
805,806,0.05954905,-0.034352499999999994,2452.927125,-56.0207195,-227.86183949999997
806,807,0.05955969999999999,-0.03429805,2452.927125,-60.89208599999999,-203.98026249999998
807,808,0.06002135,-0.0344636,2452.927125,-65.7634525,-180.09868600000001
808,809,0.0603259,-0.03449695,2452.927125,-70.634819,-156.2171095
809,810,0.060924400000000004,-0.0346697,2452.927125,-75.50618739999999,-132.335529
810,811,0.061351649999999994,-0.03464495000000001,2452.927125,-80.377552,-108.45394885000002
811,812,0.06142955,-0.0343618,2452.927125,-85.2489166,-84.5723686
812,813,0.061795050000000004,-0.03384335000000001,2452.927125,-90.120285,-60.69078825
813,814,0.06010725,-0.011846699999999998,2427.822875,-2.43568468,-490.559204
814,815,0.0649718,-0.02850215,2427.822875,-7.307051179999999,-466.67762749999997
815,816,0.059058,-0.03133735,2427.822875,-12.1784177,-442.796051
816,817,0.058472300000000005,-0.03208570000000001,2427.822875,-17.049784199999998,-418.9144745
817,818,0.059343999999999994,-0.03350735,2427.822875,-21.9211502,-395.032898
818,819,0.05859125,-0.0333218,2427.822875,-26.7925167,-371.1513215
819,820,0.05921675,-0.03393805,2427.822875,-31.6638832,-347.26974500000006
820,821,0.05845545,-0.0335986,2427.822875,-36.535251599999995,-323.388153
821,822,0.058751,-0.033866099999999996,2427.822875,-41.406618099999996,-299.5065765
822,823,0.0582177,-0.03359785,2427.822875,-46.277984599999996,-275.625
823,824,0.05849285,-0.03376810000000001,2427.822875,-51.14935299999999,-251.743416
824,825,0.058257199999999995,-0.03360795,2427.822875,-56.0207195,-227.86183949999997
825,826,0.05866260000000001,-0.0337795,2427.822875,-60.89208599999999,-203.98026249999998
826,827,0.05868325,-0.03369435,2427.822875,-65.7634525,-180.09868600000001
827,828,0.05924114999999999,-0.033883449999999996,2427.822875,-70.634819,-156.2171095
828,829,0.05939660000000001,-0.033780450000000004,2427.822875,-75.50618739999999,-132.335529
829,830,0.06000925,-0.03389995,2427.822875,-80.377552,-108.45394885000002
830,831,0.06026915000000001,-0.03360489999999999,2427.822875,-85.2489166,-84.5723686
831,832,0.0607979,-0.03335825,2427.822875,-90.120285,-60.69078825
832,833,0.08702615,-0.0216675,2402.71875,-2.43568468,-490.559204
833,834,0.0636714,-0.02964255,2402.71875,-7.307051179999999,-466.67762749999997
834,835,0.0556263,-0.028155649999999997,2402.71875,-12.1784177,-442.796051
835,836,0.0567979,-0.031089699999999998,2402.71875,-17.049784199999998,-418.9144745
836,837,0.055447800000000005,-0.03101385,2402.71875,-21.9211502,-395.032898
837,838,0.0571455,-0.03248065,2402.71875,-26.7925167,-371.1513215
838,839,0.056481199999999995,-0.03230495,2402.71875,-31.6638832,-347.26974500000006
839,840,0.0573848,-0.032986,2402.71875,-36.535251599999995,-323.388153
840,841,0.05680325,-0.032731750000000004,2402.71875,-41.406618099999996,-299.5065765
841,842,0.0572887,-0.033061999999999994,2402.71875,-46.277984599999996,-275.625
842,843,0.056896150000000006,-0.03284525,2402.71875,-51.14935299999999,-251.743416
843,844,0.0573078,-0.0330572,2402.71875,-56.0207195,-227.86183949999997
844,845,0.05713145,-0.0328949,2402.71875,-60.89208599999999,-203.98026249999998
845,846,0.0576039,-0.03306964999999999,2402.71875,-65.7634525,-180.09868600000001
846,847,0.05752855,-0.0328843,2402.71875,-70.634819,-156.2171095
847,848,0.05805635000000001,-0.033000249999999995,2402.71875,-75.50618739999999,-132.335529
848,849,0.05788275,-0.0326094,2402.71875,-80.377552,-108.45394885000002
849,850,0.0586304,-0.0326423,2402.71875,-85.2489166,-84.5723686
850,851,0.05841880000000001,-0.03168945,2402.71875,-90.120285,-60.69078825
851,852,0.023777,-0.01216505,2377.614625,-2.43568468,-490.559204
852,853,0.04283305,-0.019713300000000003,2377.614625,-7.307051179999999,-466.67762749999997
853,854,0.051225549999999995,-0.0239716,2377.614625,-12.1784177,-442.796051
854,855,0.05827955,-0.0286115,2377.614625,-17.049784199999998,-418.9144745
855,856,0.06177925000000001,-0.031535350000000004,2377.614625,-21.9211502,-395.032898
856,857,0.06541915000000001,-0.034765950000000004,2377.614625,-26.7925167,-371.1513215
857,858,0.06661695000000001,-0.036474150000000004,2377.614625,-31.6638832,-347.26974500000006
858,859,0.06862185000000001,-0.038509299999999996,2377.614625,-36.535251599999995,-323.388153
859,860,0.06887645,-0.03929655,2377.614625,-41.406618099999996,-299.5065765
860,861,0.0700739,-0.0403608,2377.614625,-46.277984599999996,-275.625
861,862,0.07009089999999998,-0.0404602,2377.614625,-51.14935299999999,-251.743416
862,863,0.07091855,-0.04073805,2377.614625,-56.0207195,-227.86183949999997
863,864,0.07091205,-0.04023615,2377.614625,-60.89208599999999,-203.98026249999998
864,865,0.071448,-0.039780750000000004,2377.614625,-65.7634525,-180.09868600000001
865,866,0.0712607,-0.0386229,2377.614625,-70.634819,-156.2171095
866,867,0.07120094999999999,-0.0373353,2377.614625,-75.50618739999999,-132.335529
867,868,0.0703427,-0.035368250000000004,2377.614625,-80.377552,-108.45394885000002
868,869,0.0689716,-0.03304205,2377.614625,-85.2489166,-84.5723686
869,870,0.0664173,-0.030036,2377.614625,-90.120285,-60.69078825
870,871,0.03221065,-0.0131563,2352.510375,-2.43568468,-490.559204
871,872,0.04958435,-0.021393000000000002,2352.510375,-7.307051179999999,-466.67762749999997
872,873,0.0581659,-0.025894100000000003,2352.510375,-12.1784177,-442.796051
873,874,0.0621226,-0.0289697,2352.510375,-17.049784199999998,-418.9144745
874,875,0.0653067,-0.0322746,2352.510375,-21.9211502,-395.032898
875,876,0.06594815000000001,-0.0340779,2352.510375,-26.7925167,-371.1513215
876,877,0.06732300000000001,-0.03627245,2352.510375,-31.6638832,-347.26974500000006
877,878,0.0669235,-0.03717995,2352.510375,-36.535251599999995,-323.388153
878,879,0.06766765,-0.0384323,2352.510375,-41.406618099999996,-299.5065765
879,880,0.0673058,-0.038720199999999996,2352.510375,-46.277984599999996,-275.625
880,881,0.06799995,-0.03925465,2352.510375,-51.14935299999999,-251.743416
881,882,0.06805205,-0.03905875,2352.510375,-56.0207195,-227.86183949999997
882,883,0.0689244,-0.0389998,2352.510375,-60.89208599999999,-203.98026249999998
883,884,0.06935305,-0.03831415,2352.510375,-65.7634525,-180.09868600000001
884,885,0.07028445,-0.03763835,2352.510375,-70.634819,-156.2171095
885,886,0.0707648,-0.03635105,2352.510375,-75.50618739999999,-132.335529
886,887,0.07123264999999998,-0.0349003,2352.510375,-80.377552,-108.45394885000002
887,888,0.07107995,-0.0328537,2352.510375,-85.2489166,-84.5723686
888,889,0.07000515,-0.0303953,2352.510375,-90.120285,-60.69078825
889,890,0.04004365,-0.01132865,2327.40625,-2.43568468,-490.559204
890,891,0.05332340000000001,-0.02112345,2327.40625,-7.307051179999999,-466.67762749999997
891,892,0.06225875,-0.02646155,2327.40625,-12.1784177,-442.796051
892,893,0.0666719,-0.030385000000000002,2327.40625,-17.049784199999998,-418.9144745
893,894,0.06765025,-0.03252205,2327.40625,-21.9211502,-395.032898
894,895,0.0686529,-0.0349361,2327.40625,-26.7925167,-371.1513215
895,896,0.0674418,-0.0358613,2327.40625,-31.6638832,-347.26974500000006
896,897,0.06745865000000001,-0.03719235,2327.40625,-36.535251599999995,-323.388153
897,898,0.06626805,-0.03750715,2327.40625,-41.406618099999996,-299.5065765
898,899,0.06637375000000001,-0.03813545,2327.40625,-46.277984599999996,-275.625
899,900,0.06600025000000001,-0.03809815,2327.40625,-51.14935299999999,-251.743416
900,901,0.0666928,-0.03826795,2327.40625,-56.0207195,-227.86183949999997
901,902,0.06723175,-0.0379241,2327.40625,-60.89208599999999,-203.98026249999998
902,903,0.06857495,-0.03769375,2327.40625,-65.7634525,-180.09868600000001
903,904,0.06976245,-0.03694825,2327.40625,-70.634819,-156.2171095
904,905,0.07136915,-0.03619560000000001,2327.40625,-75.50618739999999,-132.335529
905,906,0.07261295000000001,-0.03484785,2327.40625,-80.377552,-108.45394885000002
906,907,0.0734733,-0.03326805,2327.40625,-85.2489166,-84.5723686
907,908,0.0735226,-0.03101785,2327.40625,-90.120285,-60.69078825
908,909,0.0495542,-0.010692199999999999,2302.302125,-2.43568468,-490.559204
909,910,0.058057300000000006,-0.01958865,2302.302125,-7.307051179999999,-466.67762749999997
910,911,0.06552839999999999,-0.026769,2302.302125,-12.1784177,-442.796051
911,912,0.06903980000000001,-0.0304971,2302.302125,-17.049784199999998,-418.9144745
912,913,0.07092879999999999,-0.03381815,2302.302125,-21.9211502,-395.032898
913,914,0.06951005000000002,-0.035002,2302.302125,-26.7925167,-371.1513215
914,915,0.06910649999999999,-0.03652805,2302.302125,-31.6638832,-347.26974500000006
915,916,0.06695960000000001,-0.03679465,2302.302125,-36.535251599999995,-323.388153
916,917,0.06626395,-0.03740725,2302.302125,-41.406618099999996,-299.5065765
917,918,0.06507734999999999,-0.037380399999999994,2302.302125,-46.277984599999996,-275.625
918,919,0.0651304,-0.03759710000000001,2302.302125,-51.14935299999999,-251.743416
919,920,0.06529065,-0.03743365,2302.302125,-56.0207195,-227.86183949999997
920,921,0.0664469,-0.03743615,2302.302125,-60.89208599999999,-203.98026249999998
921,922,0.06778904999999999,-0.0370862,2302.302125,-65.7634525,-180.09868600000001
922,923,0.06988265,-0.0368366,2302.302125,-70.634819,-156.2171095
923,924,0.07186205,-0.036075499999999996,2302.302125,-75.50618739999999,-132.335529
924,925,0.07405020000000001,-0.0352584,2302.302125,-80.377552,-108.45394885000002
925,926,0.0756024,-0.0336509,2302.302125,-85.2489166,-84.5723686
926,927,0.0760565,-0.03156925,2302.302125,-90.120285,-60.69078825
927,928,0.05956065,-0.009651014999999999,2277.197875,-2.43568468,-490.559204
928,929,0.06421745,-0.01947045,2277.197875,-7.307051179999999,-466.67762749999997
929,930,0.06879315,-0.0259022,2277.197875,-12.1784177,-442.796051
930,931,0.0724483,-0.0316163,2277.197875,-17.049784199999998,-418.9144745
931,932,0.07168374999999999,-0.0337736,2277.197875,-21.9211502,-395.032898
932,933,0.071633,-0.03600225,2277.197875,-26.7925167,-371.1513215
933,934,0.06872975,-0.03633095,2277.197875,-31.6638832,-347.26974500000006
934,935,0.06737889999999999,-0.03694865,2277.197875,-36.535251599999995,-323.388153
935,936,0.065246,-0.03685605,2277.197875,-41.406618099999996,-299.5065765
936,937,0.064423,-0.03698635,2277.197875,-46.277984599999996,-275.625
937,938,0.06385539999999999,-0.036860000000000004,2277.197875,-51.14935299999999,-251.743416
938,939,0.06434609999999999,-0.036892350000000004,2277.197875,-56.0207195,-227.86183949999997
939,940,0.06537609999999999,-0.03676835,2277.197875,-60.89208599999999,-203.98026249999998
940,941,0.06729755,-0.03677255,2277.197875,-65.7634525,-180.09868600000001
941,942,0.06950620000000002,-0.03649415,2277.197875,-70.634819,-156.2171095
942,943,0.07240685000000001,-0.036296949999999994,2277.197875,-75.50618739999999,-132.335529
943,944,0.07490295,-0.035391549999999994,2277.197875,-80.377552,-108.45394885000002
944,945,0.0773151,-0.0342833,2277.197875,-85.2489166,-84.5723686
945,946,0.07850779999999999,-0.03181995,2277.197875,-90.120285,-60.69078825
946,947,0.06930465,-0.009366215,2252.09375,-2.43568468,-490.559204
947,948,0.07154959999999999,-0.0186447,2252.09375,-7.307051179999999,-466.67762749999997
948,949,0.07448635,-0.0273122,2252.09375,-12.1784177,-442.796051
949,950,0.07373199999999999,-0.03122455,2252.09375,-17.049784199999998,-418.9144745
950,951,0.07448215,-0.0350571,2252.09375,-21.9211502,-395.032898
951,952,0.07082085,-0.03571225,2252.09375,-26.7925167,-371.1513215
952,953,0.0691152,-0.0364935,2252.09375,-31.6638832,-347.26974500000006
953,954,0.06611039999999999,-0.03637335,2252.09375,-36.535251599999995,-323.388153
954,955,0.06441925,-0.036363099999999995,2252.09375,-41.406618099999996,-299.5065765
955,956,0.0630006,-0.03620045,2252.09375,-46.277984599999996,-275.625
956,957,0.06256795000000001,-0.0361186,2252.09375,-51.14935299999999,-251.743416
957,958,0.0629612,-0.036071599999999995,2252.09375,-56.0207195,-227.86183949999997
958,959,0.06420514999999999,-0.03610155,2252.09375,-60.89208599999999,-203.98026249999998
959,960,0.0661956,-0.03611745,2252.09375,-65.7634525,-180.09868600000001
960,961,0.0689916,-0.036222849999999994,2252.09375,-70.634819,-156.2171095
961,962,0.07194210000000001,-0.0360103,2252.09375,-75.50618739999999,-132.335529
962,963,0.07566519999999999,-0.03584559999999999,2252.09375,-80.377552,-108.45394885000002
963,964,0.07841155,-0.0344872,2252.09375,-85.2489166,-84.5723686
964,965,0.08101235,-0.0326636,2252.09375,-90.120285,-60.69078825
965,966,0.08132800000000001,-0.00889214,2226.989625,-2.43568468,-490.559204
966,967,0.08068675,-0.02065695,2226.989625,-7.307051179999999,-466.67762749999997
967,968,0.07842245,-0.0271336,2226.989625,-12.1784177,-442.796051
968,969,0.07894804999999999,-0.03355135,2226.989625,-17.049784199999998,-418.9144745
969,970,0.07324285,-0.03466875,2226.989625,-21.9211502,-395.032898
970,971,0.0710913,-0.0357343,2226.989625,-26.7925167,-371.1513215
971,972,0.06721189999999999,-0.03571075,2226.989625,-31.6638832,-347.26974500000006
972,973,0.06472465,-0.0355552,2226.989625,-36.535251599999995,-323.388153
973,974,0.06252985,-0.03538085,2226.989625,-41.406618099999996,-299.5065765
974,975,0.061126349999999996,-0.0351166,2226.989625,-46.277984599999996,-275.625
975,976,0.0607583,-0.03507135,2226.989625,-51.14935299999999,-251.743416
976,977,0.06106400000000001,-0.034982349999999995,2226.989625,-56.0207195,-227.86183949999997
977,978,0.06250264999999999,-0.035108850000000004,2226.989625,-60.89208599999999,-203.98026249999998
978,979,0.06461159999999999,-0.0352348,2226.989625,-65.7634525,-180.09868600000001
979,980,0.0674974,-0.0354318,2226.989625,-70.634819,-156.2171095
980,981,0.07119325,-0.03566535,2226.989625,-75.50618739999999,-132.335529
981,982,0.07482115,-0.035495849999999995,2226.989625,-80.377552,-108.45394885000002
982,983,0.07977835,-0.0353603,2226.989625,-85.2489166,-84.5723686
983,984,0.08308315000000001,-0.03325410000000001,2226.989625,-90.120285,-60.69078825
984,985,0.093473,-0.010217735,2201.885375,-2.43568468,-490.559204
985,986,0.09017175,-0.02113,2201.885375,-7.307051179999999,-466.67762749999997
986,987,0.0885511,-0.03216445,2201.885375,-12.1784177,-442.796051
987,988,0.07738555,-0.033523750000000005,2201.885375,-17.049784199999998,-418.9144745
988,989,0.0736308,-0.0345018,2201.885375,-21.9211502,-395.032898
989,990,0.06846805,-0.03470095,2201.885375,-26.7925167,-371.1513215
990,991,0.064994,-0.03433315000000001,2201.885375,-31.6638832,-347.26974500000006
991,992,0.0621618,-0.034262749999999995,2201.885375,-36.535251599999995,-323.388153
992,993,0.059822400000000005,-0.033803349999999996,2201.885375,-41.406618099999996,-299.5065765
993,994,0.05875465,-0.0337799,2201.885375,-46.277984599999996,-275.625
994,995,0.058070800000000006,-0.03352034999999999,2201.885375,-51.14935299999999,-251.743416
995,996,0.05880265,-0.03366145,2201.885375,-56.0207195,-227.86183949999997
996,997,0.0599759,-0.03366035,2201.885375,-60.89208599999999,-203.98026249999998
997,998,0.062387,-0.03398445,2201.885375,-65.7634525,-180.09868600000001
998,999,0.0653218,-0.03421565,2201.885375,-70.634819,-156.2171095
999,1000,0.0690597,-0.034626500000000004,2201.885375,-75.50618739999999,-132.335529
1000,1001,0.07375015000000001,-0.034970799999999996,2201.885375,-80.377552,-108.45394885000002
1001,1002,0.0783751,-0.03500125,2201.885375,-85.2489166,-84.5723686
1002,1003,0.08578559999999999,-0.03508425,2201.885375,-90.120285,-60.69078825
1003,1004,0.113126,-0.0107687,2176.78125,-2.43568468,-490.559204
1004,1005,0.1086665,-0.03172565000000001,2176.78125,-7.307051179999999,-466.67762749999997
1005,1006,0.08548800000000001,-0.033236150000000006,2176.78125,-12.1784177,-442.796051
1006,1007,0.07747024999999999,-0.0326867,2176.78125,-17.049784199999998,-418.9144745
1007,1008,0.07038649999999999,-0.03331375,2176.78125,-21.9211502,-395.032898
1008,1009,0.06518365000000001,-0.03247225000000001,2176.78125,-26.7925167,-371.1513215
1009,1010,0.06179865,-0.03269585,2176.78125,-31.6638832,-347.26974500000006
1010,1011,0.05846370000000001,-0.032046000000000005,2176.78125,-36.535251599999995,-323.388153
1011,1012,0.05685015,-0.032146,2176.78125,-41.406618099999996,-299.5065765
1012,1013,0.05522375,-0.0317334,2176.78125,-46.277984599999996,-275.625
1013,1014,0.055256299999999994,-0.03189155,2176.78125,-51.14935299999999,-251.743416
1014,1015,0.05546575,-0.0317346,2176.78125,-56.0207195,-227.86183949999997
1015,1016,0.05719445,-0.03204755,2176.78125,-60.89208599999999,-203.98026249999998
1016,1017,0.05919065,-0.0321306,2176.78125,-65.7634525,-180.09868600000001
1017,1018,0.06247585,-0.0326398,2176.78125,-70.634819,-156.2171095
1018,1019,0.0661225,-0.032907000000000006,2176.78125,-75.50618739999999,-132.335529
1019,1020,0.07086425,-0.03362395,2176.78125,-80.377552,-108.45394885000002
1020,1021,0.0766561,-0.0339826,2176.78125,-85.2489166,-84.5723686
1021,1022,0.08319255,-0.03479805,2176.78125,-90.120285,-60.69078825
1022,1023,0.146349,-0.02763005,2151.677125,-2.43568468,-490.559204
1023,1024,0.1012305,-0.0349965,2151.677125,-7.307051179999999,-466.67762749999997
1024,1025,0.08266604999999999,-0.0295247,2151.677125,-12.1784177,-442.796051
1025,1026,0.0738233,-0.03135765,2151.677125,-17.049784199999998,-418.9144745
1026,1027,0.0655828,-0.0297223,2151.677125,-21.9211502,-395.032898
1027,1028,0.0617078,-0.03053435,2151.677125,-26.7925167,-371.1513215
1028,1029,0.05710545,-0.029726750000000003,2151.677125,-31.6638832,-347.26974500000006
1029,1030,0.055058350000000006,-0.03009455,2151.677125,-36.535251599999995,-323.388153
1030,1031,0.0525004,-0.02958585,2151.677125,-41.406618099999996,-299.5065765
1031,1032,0.051898849999999996,-0.029818950000000004,2151.677125,-46.277984599999996,-275.625
1032,1033,0.05118465,-0.02953985,2151.677125,-51.14935299999999,-251.743416
1033,1034,0.0521772,-0.029823500000000003,2151.677125,-56.0207195,-227.86183949999997
1034,1035,0.0532782,-0.02976185,2151.677125,-60.89208599999999,-203.98026249999998
1035,1036,0.05587715,-0.030195,2151.677125,-65.7634525,-180.09868600000001
1036,1037,0.05857955,-0.030299799999999998,2151.677125,-70.634819,-156.2171095
1037,1038,0.0627207,-0.030961250000000003,2151.677125,-75.50618739999999,-132.335529
1038,1039,0.06690580000000002,-0.03111435,2151.677125,-80.377552,-108.45394885000002
1039,1040,0.07306970000000002,-0.0322543,2151.677125,-85.2489166,-84.5723686
1040,1041,0.07957434999999999,-0.032181600000000005,2151.677125,-90.120285,-60.69078825
1041,1042,0.06930700000000001,-0.006642645,2126.572875,-2.43568468,-490.559204
1042,1043,0.07075445,-0.013763750000000002,2126.572875,-7.307051179999999,-466.67762749999997
1043,1044,0.07624935,-0.022287,2126.572875,-12.1784177,-442.796051
1044,1045,0.07697315,-0.02706655,2126.572875,-17.049784199999998,-418.9144745
1045,1046,0.0789253,-0.03271405,2126.572875,-21.9211502,-395.032898
1046,1047,0.07786295,-0.0357996,2126.572875,-26.7925167,-371.1513215
1047,1048,0.07866284999999999,-0.0396245,2126.572875,-31.6638832,-347.26974500000006
1048,1049,0.07716939999999999,-0.041331349999999996,2126.572875,-36.535251599999995,-323.388153
1049,1050,0.0779482,-0.04366515,2126.572875,-41.406618099999996,-299.5065765
1050,1051,0.0770961,-0.04424555,2126.572875,-46.277984599999996,-275.625
1051,1052,0.0785094,-0.0453103,2126.572875,-51.14935299999999,-251.743416
1052,1053,0.07882620000000001,-0.0449026,2126.572875,-56.0207195,-227.86183949999997
1053,1054,0.08108735,-0.04482425,2126.572875,-60.89208599999999,-203.98026249999998
1054,1055,0.08249555,-0.0434222,2126.572875,-65.7634525,-180.09868600000001
1055,1056,0.08533955,-0.0421898,2126.572875,-70.634819,-156.2171095
1056,1057,0.0872796,-0.039648649999999994,2126.572875,-75.50618739999999,-132.335529
1057,1058,0.0900813,-0.037123249999999997,2126.572875,-80.377552,-108.45394885000002
1058,1059,0.09160979999999999,-0.03313565,2126.572875,-85.2489166,-84.5723686
1059,1060,0.0936157,-0.0291104,2126.572875,-90.120285,-60.69078825
1060,1061,0.078837,-0.01443945,2101.46875,-2.43568468,-490.559204
1061,1062,0.08632219999999999,-0.0178537,2101.46875,-7.307051179999999,-466.67762749999997
1062,1063,0.08453805,-0.0225946,2101.46875,-12.1784177,-442.796051
1063,1064,0.0849194,-0.0279646,2101.46875,-17.049784199999998,-418.9144745
1064,1065,0.0819185,-0.0311685,2101.46875,-21.9211502,-395.032898
1065,1066,0.08065955,-0.035192249999999994,2101.46875,-26.7925167,-371.1513215
1066,1067,0.0771546,-0.0371222,2101.46875,-31.6638832,-347.26974500000006
1067,1068,0.07605994999999999,-0.03977,2101.46875,-36.535251599999995,-323.388153
1068,1069,0.07349455,-0.04065575,2101.46875,-41.406618099999996,-299.5065765
1069,1070,0.07360735,-0.042104499999999996,2101.46875,-46.277984599999996,-275.625
1070,1071,0.07299245,-0.04212335,2101.46875,-51.14935299999999,-251.743416
1071,1072,0.07484525,-0.04254845,2101.46875,-56.0207195,-227.86183949999997
1072,1073,0.07637505,-0.04175005,2101.46875,-60.89208599999999,-203.98026249999998
1073,1074,0.07985675,-0.0412132,2101.46875,-65.7634525,-180.09868600000001
1074,1075,0.08300484999999999,-0.03952045,2101.46875,-70.634819,-156.2171095
1075,1076,0.08746999999999999,-0.03794565,2101.46875,-75.50618739999999,-132.335529
1076,1077,0.0913009,-0.0351986,2101.46875,-80.377552,-108.45394885000002
1077,1078,0.09591905,-0.032414649999999996,2101.46875,-85.2489166,-84.5723686
1078,1079,0.09911985000000001,-0.028446900000000004,2101.46875,-90.120285,-60.69078825
1079,1080,0.08546530000000001,-0.01232155,2076.364625,-2.43568468,-490.559204
1080,1081,0.0926481,-0.0208575,2076.364625,-7.307051179999999,-466.67762749999997
1081,1082,0.09362785000000001,-0.024654449999999998,2076.364625,-12.1784177,-442.796051
1082,1083,0.09025305,-0.02824375,2076.364625,-17.049784199999998,-418.9144745
1083,1084,0.08764925,-0.0321677,2076.364625,-21.9211502,-395.032898
1084,1085,0.08238614999999999,-0.03422625,2076.364625,-26.7925167,-371.1513215
1085,1086,0.0792775,-0.03702005,2076.364625,-31.6638832,-347.26974500000006
1086,1087,0.07447375,-0.03803139999999999,2076.364625,-36.535251599999995,-323.388153
1087,1088,0.07255149999999999,-0.039679900000000004,2076.364625,-41.406618099999996,-299.5065765
1088,1089,0.0700482,-0.0399422,2076.364625,-46.277984599999996,-275.625
1089,1090,0.07048425,-0.04067725,2076.364625,-51.14935299999999,-251.743416
1090,1091,0.07113305,-0.0403199,2076.364625,-56.0207195,-227.86183949999997
1091,1092,0.0742751,-0.040293050000000004,2076.364625,-60.89208599999999,-203.98026249999998
1092,1093,0.07772255,-0.0392874,2076.364625,-65.7634525,-180.09868600000001
1093,1094,0.08294505,-0.038481299999999996,2076.364625,-70.634819,-156.2171095
1094,1095,0.08810704999999999,-0.0366997,2076.364625,-75.50618739999999,-132.335529
1095,1096,0.0942759,-0.034939399999999995,2076.364625,-80.377552,-108.45394885000002
1096,1097,0.0998365,-0.03229625,2076.364625,-85.2489166,-84.5723686
1097,1098,0.10570650000000001,-0.02927085,2076.364625,-90.120285,-60.69078825
1098,1099,0.09637399999999999,-0.0116967,2051.260435,-2.43568468,-490.559204
1099,1100,0.09740104999999999,-0.01961095,2051.260435,-7.307051179999999,-466.67762749999997
1100,1101,0.09842334999999999,-0.0255479,2051.260435,-12.1784177,-442.796051
1101,1102,0.0960544,-0.0296195,2051.260435,-17.049784199999998,-418.9144745
1102,1103,0.090593,-0.03221065,2051.260435,-21.9211502,-395.032898
1103,1104,0.08625525,-0.035187750000000004,2051.260435,-26.7925167,-371.1513215
1104,1105,0.07955965,-0.0362974,2051.260435,-31.6638832,-347.26974500000006
1105,1106,0.07560115,-0.03803685,2051.260435,-36.535251599999995,-323.388153
1106,1107,0.07072,-0.0383776,2051.260435,-41.406618099999996,-299.5065765
1107,1108,0.06899905,-0.03922239999999999,2051.260435,-46.277984599999996,-275.625
1108,1109,0.06777975,-0.039110400000000003,2051.260435,-51.14935299999999,-251.743416
1109,1110,0.069509,-0.0393608,2051.260435,-56.0207195,-227.86183949999997
1110,1111,0.0722391,-0.03884845,2051.260435,-60.89208599999999,-203.98026249999998
1111,1112,0.07722709999999999,-0.03858545,2051.260435,-65.7634525,-180.09868600000001
1112,1113,0.0827932,-0.0375567,2051.260435,-70.634819,-156.2171095
1113,1114,0.08974135,-0.03662655,2051.260435,-75.50618739999999,-132.335529
1114,1115,0.0965985,-0.03489684999999999,2051.260435,-80.377552,-108.45394885000002
1115,1116,0.10379200000000001,-0.032918,2051.260435,-85.2489166,-84.5723686
1116,1117,0.1103395,-0.03045045,2051.260435,-90.120285,-60.69078825
1117,1118,0.10436700000000002,-0.010325775,2026.15625,-2.43568468,-490.559204
1118,1119,0.1047815,-0.0188803,2026.15625,-7.307051179999999,-466.67762749999997
1119,1120,0.10280900000000001,-0.0255552,2026.15625,-12.1784177,-442.796051
1120,1121,0.09924225,-0.029806150000000003,2026.15625,-17.049784199999998,-418.9144745
1121,1122,0.09475660000000001,-0.0335583,2026.15625,-21.9211502,-395.032898
1122,1123,0.08713024999999999,-0.03505245,2026.15625,-26.7925167,-371.1513215
1123,1124,0.08179175,-0.03697855,2026.15625,-31.6638832,-347.26974500000006
1124,1125,0.07470299999999999,-0.03733575,2026.15625,-36.535251599999995,-323.388153
1125,1126,0.07073399999999999,-0.03814835,2026.15625,-41.406618099999996,-299.5065765
1126,1127,0.0670735,-0.0381079,2026.15625,-46.277984599999996,-275.625
1127,1128,0.06654974999999999,-0.03840395,2026.15625,-51.14935299999999,-251.743416
1128,1129,0.06758465,-0.03817615,2026.15625,-56.0207195,-227.86183949999997
1129,1130,0.0712769,-0.0381909,2026.15625,-60.89208599999999,-203.98026249999998
1130,1131,0.07634425,-0.0377259,2026.15625,-65.7634525,-180.09868600000001
1131,1132,0.0832386,-0.037409849999999994,2026.15625,-70.634819,-156.2171095
1132,1133,0.09059895,-0.0364593,2026.15625,-75.50618739999999,-132.335529
1133,1134,0.09878695,-0.0354105,2026.15625,-80.377552,-108.45394885000002
1134,1135,0.106666,-0.0336097,2026.15625,-85.2489166,-84.5723686
1135,1136,0.113762,-0.03108755,2026.15625,-90.120285,-60.69078825
1136,1137,0.1152115,-0.0091773,2001.052065,-2.43568468,-490.559204
1137,1138,0.111042,-0.01848495,2001.052065,-7.307051179999999,-466.67762749999997
1138,1139,0.108018,-0.0250624,2001.052065,-12.1784177,-442.796051
1139,1140,0.10356299999999999,-0.031047650000000003,2001.052065,-17.049784199999998,-418.9144745
1140,1141,0.09576515000000001,-0.033543050000000005,2001.052065,-21.9211502,-395.032898
1141,1142,0.08979855,-0.03613195,2001.052065,-26.7925167,-371.1513215
1142,1143,0.08091915,-0.0365939,2001.052065,-31.6638832,-347.26974500000006
1143,1144,0.07514255,-0.03734165,2001.052065,-36.535251599999995,-323.388153
1144,1145,0.0690446,-0.03727119999999999,2001.052065,-41.406618099999996,-299.5065765
1145,1146,0.06597465,-0.03742395,2001.052065,-46.277984599999996,-275.625
1146,1147,0.0646338,-0.03729495000000001,2001.052065,-51.14935299999999,-251.743416
1147,1148,0.06611020000000001,-0.03732669999999999,2001.052065,-56.0207195,-227.86183949999997
1148,1149,0.0697976,-0.037208099999999994,2001.052065,-60.89208599999999,-203.98026249999998
1149,1150,0.07563395,-0.0372069,2001.052065,-65.7634525,-180.09868600000001
1150,1151,0.08275674999999999,-0.036928,2001.052065,-70.634819,-156.2171095
1151,1152,0.09129480000000001,-0.0366678,2001.052065,-75.50618739999999,-132.335529
1152,1153,0.0999254,-0.03571415,2001.052065,-80.377552,-108.45394885000002
1153,1154,0.108794,-0.034352850000000004,2001.052065,-85.2489166,-84.5723686
1154,1155,0.1170475,-0.03188055,2001.052065,-90.120285,-60.69078825
1155,1156,0.1238455,-0.00860784,1975.9479350000001,-2.43568468,-490.559204
1156,1157,0.120062,-0.01767815,1975.9479350000001,-7.307051179999999,-466.67762749999997
1157,1158,0.1142975,-0.0268141,1975.9479350000001,-12.1784177,-442.796051
1158,1159,0.10565949999999999,-0.03091245,1975.9479350000001,-17.049784199999998,-418.9144745
1159,1160,0.09923030000000001,-0.0351317,1975.9479350000001,-21.9211502,-395.032898
1160,1161,0.0884208,-0.035856349999999995,1975.9479350000001,-26.7925167,-371.1513215
1161,1162,0.08129934999999999,-0.0366133,1975.9479350000001,-31.6638832,-347.26974500000006
1162,1163,0.0730455,-0.03649895,1975.9479350000001,-36.535251599999995,-323.388153
1163,1164,0.06764424999999999,-0.036376549999999994,1975.9479350000001,-41.406618099999996,-299.5065765
1164,1165,0.06374755000000001,-0.03622575,1975.9479350000001,-46.277984599999996,-275.625
1165,1166,0.06249115000000001,-0.036062949999999996,1975.9479350000001,-51.14935299999999,-251.743416
1166,1167,0.06406150000000001,-0.03608445,1975.9479350000001,-56.0207195,-227.86183949999997
1167,1168,0.06790945,-0.0361008,1975.9479350000001,-60.89208599999999,-203.98026249999998
1168,1169,0.07405225,-0.0362567,1975.9479350000001,-65.7634525,-180.09868600000001
1169,1170,0.0818457,-0.036399249999999994,1975.9479350000001,-70.634819,-156.2171095
1170,1171,0.09055389999999999,-0.036367,1975.9479350000001,-75.50618739999999,-132.335529
1171,1172,0.10058249999999999,-0.036215899999999995,1975.9479350000001,-80.377552,-108.45394885000002
1172,1173,0.110176,-0.034950999999999996,1975.9479350000001,-85.2489166,-84.5723686
1173,1174,0.119681,-0.03288225,1975.9479350000001,-90.120285,-60.69078825
1174,1175,0.13677250000000002,-0.007689615,1950.84375,-2.43568468,-490.559204
1175,1176,0.129221,-0.0202517,1950.84375,-7.307051179999999,-466.67762749999997
1176,1177,0.119271,-0.026838749999999998,1950.84375,-12.1784177,-442.796051
1177,1178,0.11161850000000001,-0.034068,1950.84375,-17.049784199999998,-418.9144745
1178,1179,0.0971966,-0.035019499999999995,1950.84375,-21.9211502,-395.032898
1179,1180,0.08868585,-0.0357938,1950.84375,-26.7925167,-371.1513215
1180,1181,0.0783379,-0.03566369999999999,1950.84375,-31.6638832,-347.26974500000006
1181,1182,0.07092945,-0.0351509,1950.84375,-36.535251599999995,-323.388153
1182,1183,0.064708,-0.0349429,1950.84375,-41.406618099999996,-299.5065765
1183,1184,0.06068155,-0.0344362,1950.84375,-46.277984599999996,-275.625
1184,1185,0.05972685,-0.034461450000000005,1950.84375,-51.14935299999999,-251.743416
1185,1186,0.06093205,-0.034275150000000004,1950.84375,-56.0207195,-227.86183949999997
1186,1187,0.0653909,-0.034606,1950.84375,-60.89208599999999,-203.98026249999998
1187,1188,0.07150855,-0.034775600000000004,1950.84375,-65.7634525,-180.09868600000001
1188,1189,0.0796265,-0.0353211,1950.84375,-70.634819,-156.2171095
1189,1190,0.08914135000000001,-0.03571435,1950.84375,-75.50618739999999,-132.335529
1190,1191,0.09914825,-0.03598185,1950.84375,-80.377552,-108.45394885000002
1191,1192,0.111137,-0.0360605,1950.84375,-85.2489166,-84.5723686
1192,1193,0.1220285,-0.0341019,1950.84375,-90.120285,-60.69078825
1193,1194,0.14852300000000002,-0.009387135000000001,1925.739565,-2.43568468,-490.559204
1194,1195,0.140187,-0.0206768,1925.739565,-7.307051179999999,-466.67762749999997
1195,1196,0.1303355,-0.0338225,1925.739565,-12.1784177,-442.796051
1196,1197,0.108299,-0.0346233,1925.739565,-17.049784199999998,-418.9144745
1197,1198,0.09748835,-0.0348468,1925.739565,-21.9211502,-395.032898
1198,1199,0.08462675,-0.0347083,1925.739565,-26.7925167,-371.1513215
1199,1200,0.075218,-0.03358819999999999,1925.739565,-31.6638832,-347.26974500000006
1200,1201,0.06703485,-0.0333657,1925.739565,-36.535251599999995,-323.388153
1201,1202,0.060476600000000005,-0.032408400000000004,1925.739565,-41.406618099999996,-299.5065765
1202,1203,0.05700045,-0.032397850000000006,1925.739565,-46.277984599999996,-275.625
1203,1204,0.055258,-0.0318838,1925.739565,-51.14935299999999,-251.743416
1204,1205,0.057463200000000006,-0.0322185,1925.739565,-56.0207195,-227.86183949999997
1205,1206,0.061288800000000004,-0.03218215000000001,1925.739565,-60.89208599999999,-203.98026249999998
1206,1207,0.06818765,-0.0329108,1925.739565,-65.7634525,-180.09868600000001
1207,1208,0.0761986,-0.033312900000000006,1925.739565,-70.634819,-156.2171095
1208,1209,0.0858888,-0.034366850000000004,1925.739565,-75.50618739999999,-132.335529
1209,1210,0.09706655,-0.0350921,1925.739565,-80.377552,-108.45394885000002
1210,1211,0.1085015,-0.03593705,1925.739565,-85.2489166,-84.5723686
1211,1212,0.1239725,-0.03665245,1925.739565,-90.120285,-60.69078825
1212,1213,0.17139,-0.009483080000000001,1900.6354350000001,-2.43568468,-490.559204
1213,1214,0.16100150000000002,-0.03557679999999999,1900.6354350000001,-7.307051179999999,-466.67762749999997
1214,1215,0.1233425,-0.03605885,1900.6354350000001,-12.1784177,-442.796051
1215,1216,0.10793749999999999,-0.0336901,1900.6354350000001,-17.049784199999998,-418.9144745
1216,1217,0.0921386,-0.03367375,1900.6354350000001,-21.9211502,-395.032898
1217,1218,0.08018745,-0.03148355,1900.6354350000001,-26.7925167,-371.1513215
1218,1219,0.0704021,-0.0313724,1900.6354350000001,-31.6638832,-347.26974500000006
1219,1220,0.0615253,-0.0298732,1900.6354350000001,-36.535251599999995,-323.388153
1220,1221,0.055844,-0.029877349999999997,1900.6354350000001,-41.406618099999996,-299.5065765
1221,1222,0.051156499999999994,-0.028989550000000003,1900.6354350000001,-46.277984599999996,-275.625
1222,1223,0.050751199999999996,-0.0292725,1900.6354350000001,-51.14935299999999,-251.743416
1223,1224,0.051859,-0.02893685,1900.6354350000001,-56.0207195,-227.86183949999997
1224,1225,0.05698295,-0.029616700000000003,1900.6354350000001,-60.89208599999999,-203.98026249999998
1225,1226,0.06312275,-0.029785399999999997,1900.6354350000001,-65.7634525,-180.09868600000001
1226,1227,0.07191475,-0.030957199999999997,1900.6354350000001,-70.634819,-156.2171095
1227,1228,0.0813617,-0.0315816,1900.6354350000001,-75.50618739999999,-132.335529
1228,1229,0.09250105,-0.03334165,1900.6354350000001,-80.377552,-108.45394885000002
1229,1230,0.10531499999999999,-0.0343921,1900.6354350000001,-85.2489166,-84.5723686
1230,1231,0.11882099999999998,-0.03668695,1900.6354350000001,-90.120285,-60.69078825
1231,1232,0.21152149999999997,-0.03405395,1875.53125,-2.43568468,-490.559204
1232,1233,0.146271,-0.041243049999999996,1875.53125,-7.307051179999999,-466.67762749999997
1233,1234,0.11906749999999999,-0.0313284,1875.53125,-12.1784177,-442.796051
1234,1235,0.10138849999999999,-0.032288800000000006,1875.53125,-17.049784199999998,-418.9144745
1235,1236,0.08572205,-0.02847375,1875.53125,-21.9211502,-395.032898
1236,1237,0.07484964999999999,-0.0287542,1875.53125,-26.7925167,-371.1513215
1237,1238,0.0636759,-0.02667895,1875.53125,-31.6638832,-347.26974500000006
1238,1239,0.0562438,-0.02681595,1875.53125,-36.535251599999995,-323.388153
1239,1240,0.04880265,-0.02557405,1875.53125,-41.406618099999996,-299.5065765
1240,1241,0.0456656,-0.025828949999999996,1875.53125,-46.277984599999996,-275.625
1241,1242,0.0436897,-0.02519155,1875.53125,-51.14935299999999,-251.743416
1242,1243,0.0464798,-0.025748149999999997,1875.53125,-56.0207195,-227.86183949999997
1243,1244,0.050523099999999994,-0.02563265,1875.53125,-60.89208599999999,-203.98026249999998
1244,1245,0.058039049999999995,-0.026632950000000002,1875.53125,-65.7634525,-180.09868600000001
1245,1246,0.065939,-0.02697435,1875.53125,-70.634819,-156.2171095
1246,1247,0.07621235,-0.02859345,1875.53125,-75.50618739999999,-132.335529
1247,1248,0.08657195,-0.029312550000000003,1875.53125,-80.377552,-108.45394885000002
1248,1249,0.09940009999999999,-0.032007,1875.53125,-85.2489166,-84.5723686
1249,1250,0.1131145,-0.03290285,1875.53125,-90.120285,-60.69078825
1250,1251,0.1318715,-0.00022720500000000007,1850.427065,-2.43568468,-490.559204
1251,1252,0.112731,-0.007332389999999999,1850.427065,-7.307051179999999,-466.67762749999997
1252,1253,0.111534,-0.02017095,1850.427065,-12.1784177,-442.796051
1253,1254,0.1050945,-0.0258443,1850.427065,-17.049784199999998,-418.9144745
1254,1255,0.1024495,-0.0337065,1850.427065,-21.9211502,-395.032898
1255,1256,0.09629004999999999,-0.0374485,1850.427065,-26.7925167,-371.1513215
1256,1257,0.09372555,-0.042654300000000006,1850.427065,-31.6638832,-347.26974500000006
1257,1258,0.0885889,-0.04472860000000001,1850.427065,-36.535251599999995,-323.388153
1258,1259,0.0875822,-0.047899250000000004,1850.427065,-41.406618099999996,-299.5065765
1259,1260,0.08502565,-0.04855585,1850.427065,-46.277984599999996,-275.625
1260,1261,0.08669125,-0.050018900000000005,1850.427065,-51.14935299999999,-251.743416
1261,1262,0.08760105,-0.0493856,1850.427065,-56.0207195,-227.86183949999997
1262,1263,0.09212725,-0.049315899999999996,1850.427065,-60.89208599999999,-203.98026249999998
1263,1264,0.09609105,-0.0473516,1850.427065,-65.7634525,-180.09868600000001
1264,1265,0.10266900000000001,-0.045750849999999996,1850.427065,-70.634819,-156.2171095
1265,1266,0.10842299999999999,-0.042236050000000004,1850.427065,-75.50618739999999,-132.335529
1266,1267,0.11591499999999999,-0.0389513,1850.427065,-80.377552,-108.45394885000002
1267,1268,0.1219985,-0.033399849999999995,1850.427065,-85.2489166,-84.5723686
1268,1269,0.12975350000000002,-0.0282228,1850.427065,-90.120285,-60.69078825
1269,1270,0.1349085,-0.0155994,1825.3229350000001,-2.43568468,-490.559204
1270,1271,0.1363005,-0.01370575,1825.3229350000001,-7.307051179999999,-466.67762749999997
1271,1272,0.121951,-0.0194434,1825.3229350000001,-12.1784177,-442.796051
1272,1273,0.1167185,-0.026624600000000002,1825.3229350000001,-17.049784199999998,-418.9144745
1273,1274,0.106674,-0.0305822,1825.3229350000001,-21.9211502,-395.032898
1274,1275,0.1006015,-0.0360603,1825.3229350000001,-26.7925167,-371.1513215
1275,1276,0.0917118,-0.0384679,1825.3229350000001,-31.6638832,-347.26974500000006
1276,1277,0.08702765000000001,-0.0420863,1825.3229350000001,-36.535251599999995,-323.388153
1277,1278,0.0808932,-0.043178400000000006,1825.3229350000001,-41.406618099999996,-299.5065765
1278,1279,0.07958894999999999,-0.0451739,1825.3229350000001,-46.277984599999996,-275.625
1279,1280,0.07823225,-0.045131,1825.3229350000001,-51.14935299999999,-251.743416
1280,1281,0.08151554999999999,-0.0457342,1825.3229350000001,-56.0207195,-227.86183949999997
1281,1282,0.0852638,-0.04458975,1825.3229350000001,-60.89208599999999,-203.98026249999998
1282,1283,0.09248590000000001,-0.043887800000000005,1825.3229350000001,-65.7634525,-180.09868600000001
1283,1284,0.09976189999999999,-0.04152460000000001,1825.3229350000001,-70.634819,-156.2171095
1284,1285,0.10927700000000001,-0.0394351,1825.3229350000001,-75.50618739999999,-132.335529
1285,1286,0.1181465,-0.0356332,1825.3229350000001,-80.377552,-108.45394885000002
1286,1287,0.1287615,-0.03195185,1825.3229350000001,-85.2489166,-84.5723686
1287,1288,0.13748349999999998,-0.026518350000000003,1825.3229350000001,-90.120285,-60.69078825
1288,1289,0.13851950000000002,-0.0130083,1800.21875,-2.43568468,-490.559204
1289,1290,0.14169199999999998,-0.020899800000000003,1800.21875,-7.307051179999999,-466.67762749999997
1290,1291,0.13573849999999998,-0.0225088,1800.21875,-12.1784177,-442.796051
1291,1292,0.1235965,-0.026750700000000002,1800.21875,-17.049784199999998,-418.9144745
1292,1293,0.115111,-0.031540700000000005,1800.21875,-21.9211502,-395.032898
1293,1294,0.10305349999999999,-0.034113450000000003,1800.21875,-26.7925167,-371.1513215
1294,1295,0.09486979999999999,-0.03782325,1800.21875,-31.6638832,-347.26974500000006
1295,1296,0.0846661,-0.0391234,1800.21875,-36.535251599999995,-323.388153
1296,1297,0.0792901,-0.04138175,1800.21875,-41.406618099999996,-299.5065765
1297,1298,0.07395879999999999,-0.04170795,1800.21875,-46.277984599999996,-275.625
1298,1299,0.07407554999999999,-0.04273525,1800.21875,-51.14935299999999,-251.743416
1299,1300,0.0757773,-0.04221595,1800.21875,-56.0207195,-227.86183949999997
1300,1301,0.08205965,-0.04219135,1800.21875,-60.89208599999999,-203.98026249999998
1301,1302,0.08957445,-0.04077985,1800.21875,-65.7634525,-180.09868600000001
1302,1303,0.09995245,-0.03969095,1800.21875,-70.634819,-156.2171095
1303,1304,0.11052899999999999,-0.037245650000000005,1800.21875,-75.50618739999999,-132.335529
1304,1305,0.1228,-0.034903649999999994,1800.21875,-80.377552,-108.45394885000002
1305,1306,0.134342,-0.0314441,1800.21875,-85.2489166,-84.5723686
1306,1307,0.14729599999999998,-0.02754325,1800.21875,-90.120285,-60.69078825
1307,1308,0.149737,-0.0126345,1775.114565,-2.43568468,-490.559204
1308,1309,0.14570450000000001,-0.019461,1775.114565,-7.307051179999999,-466.67762749999997
1309,1310,0.1411235,-0.0252458,1775.114565,-12.1784177,-442.796051
1310,1311,0.13198300000000002,-0.028578350000000002,1775.114565,-17.049784199999998,-418.9144745
1311,1312,0.1190755,-0.031553250000000005,1775.114565,-21.9211502,-395.032898
1312,1313,0.108652,-0.035045950000000006,1775.114565,-26.7925167,-371.1513215
1313,1314,0.09529725,-0.0364457,1775.114565,-31.6638832,-347.26974500000006
1314,1315,0.08624514999999999,-0.038712300000000005,1775.114565,-36.535251599999995,-323.388153
1315,1316,0.0764119,-0.039181499999999994,1775.114565,-41.406618099999996,-299.5065765
1316,1317,0.0720298,-0.04034265,1775.114565,-46.277984599999996,-275.625
1317,1318,0.0697023,-0.0401985,1775.114565,-51.14935299999999,-251.743416
1318,1319,0.0730111,-0.04055109999999999,1775.114565,-56.0207195,-227.86183949999997
1319,1320,0.0790447,-0.03984135,1775.114565,-60.89208599999999,-203.98026249999998
1320,1321,0.08887075,-0.03947715,1775.114565,-65.7634525,-180.09868600000001
1321,1322,0.0999651,-0.03807995,1775.114565,-70.634819,-156.2171095
1322,1323,0.1130635,-0.03684005,1775.114565,-75.50618739999999,-132.335529
1323,1324,0.12619249999999999,-0.034642950000000006,1775.114565,-80.377552,-108.45394885000002
1324,1325,0.140091,-0.0321825,1775.114565,-85.2489166,-84.5723686
1325,1326,0.153401,-0.02959585,1775.114565,-90.120285,-60.69078825
1326,1327,0.15676649999999998,-0.0107279,1750.0104350000001,-2.43568468,-490.559204
1327,1328,0.15364299999999997,-0.019161650000000002,1750.0104350000001,-7.307051179999999,-466.67762749999997
1328,1329,0.145673,-0.02526055,1750.0104350000001,-12.1784177,-442.796051
1329,1330,0.135906,-0.0295472,1750.0104350000001,-17.049784199999998,-418.9144745
1330,1331,0.124721,-0.03319015,1750.0104350000001,-21.9211502,-395.032898
1331,1332,0.10991000000000001,-0.0348643,1750.0104350000001,-26.7925167,-371.1513215
1332,1333,0.0984706,-0.03706405,1750.0104350000001,-31.6638832,-347.26974500000006
1333,1334,0.0849609,-0.03753165,1750.0104350000001,-36.535251599999995,-323.388153
1334,1335,0.0763121,-0.03856305,1750.0104350000001,-41.406618099999996,-299.5065765
1335,1336,0.0689839,-0.03854845,1750.0104350000001,-46.277984599999996,-275.625
1336,1337,0.0675323,-0.038951799999999995,1750.0104350000001,-51.14935299999999,-251.743416
1337,1338,0.07005005,-0.03866575,1750.0104350000001,-56.0207195,-227.86183949999997
1338,1339,0.07750055,-0.038680099999999995,1750.0104350000001,-60.89208599999999,-203.98026249999998
1339,1340,0.08775234999999999,-0.0380697,1750.0104350000001,-65.7634525,-180.09868600000001
1340,1341,0.100665,-0.037646349999999995,1750.0104350000001,-70.634819,-156.2171095
1341,1342,0.1144175,-0.036480849999999995,1750.0104350000001,-75.50618739999999,-132.335529
1342,1343,0.129264,-0.035222,1750.0104350000001,-80.377552,-108.45394885000002
1343,1344,0.1439015,-0.0332958,1750.0104350000001,-85.2489166,-84.5723686
1344,1345,0.157524,-0.0306675,1750.0104350000001,-90.120285,-60.69078825
1345,1346,0.168275,-0.0091773,1724.90625,-2.43568468,-490.559204
1346,1347,0.15934500000000001,-0.01848495,1724.90625,-7.307051179999999,-466.67762749999997
1347,1348,0.15156,-0.0250624,1724.90625,-12.1784177,-442.796051
1348,1349,0.1406235,-0.031047650000000003,1724.90625,-17.049784199999998,-418.9144745
1349,1350,0.125961,-0.033543050000000005,1724.90625,-21.9211502,-395.032898
1350,1351,0.1133785,-0.03613195,1724.90625,-26.7925167,-371.1513215
1351,1352,0.0973205,-0.0365939,1724.90625,-31.6638832,-347.26974500000006
1352,1353,0.0856542,-0.03734165,1724.90625,-36.535251599999995,-323.388153
1353,1354,0.0738914,-0.03727119999999999,1724.90625,-41.406618099999996,-299.5065765
1354,1355,0.0672835,-0.03742395,1724.90625,-46.277984599999996,-275.625
1355,1356,0.0646766,-0.037294900000000006,1724.90625,-51.14935299999999,-251.743416
1356,1357,0.06775585,-0.03732669999999999,1724.90625,-56.0207195,-227.86183949999997
1357,1358,0.0755082,-0.037208099999999994,1724.90625,-60.89208599999999,-203.98026249999998
1358,1359,0.08678275,-0.0372069,1724.90625,-65.7634525,-180.09868600000001
1359,1360,0.10017075,-0.036928,1724.90625,-70.634819,-156.2171095
1360,1361,0.115342,-0.0366678,1724.90625,-75.50618739999999,-132.335529
1361,1362,0.130766,-0.03571415,1724.90625,-80.377552,-108.45394885000002
1362,1363,0.14635599999999999,-0.034352850000000004,1724.90625,-85.2489166,-84.5723686
1363,1364,0.1612595,-0.0318806,1724.90625,-90.120285,-60.69078825
1364,1365,0.1763575,-0.00820576,1699.802065,-2.43568468,-490.559204
1365,1366,0.1692635,-0.017396799999999997,1699.802065,-7.307051179999999,-466.67762749999997
1366,1367,0.15774149999999998,-0.027108749999999997,1699.802065,-12.1784177,-442.796051
1367,1368,0.14283200000000001,-0.03117135,1699.802065,-17.049784199999998,-418.9144745
1368,1369,0.12972699999999998,-0.03549995,1699.802065,-21.9211502,-395.032898
1369,1370,0.1114125,-0.03604449999999999,1699.802065,-26.7925167,-371.1513215
1370,1371,0.0978695,-0.03652785,1699.802065,-31.6638832,-347.26974500000006
1371,1372,0.08281735,-0.0363031,1699.802065,-36.535251599999995,-323.388153
1372,1373,0.07208200000000001,-0.0359619,1699.802065,-41.406618099999996,-299.5065765
1373,1374,0.064187,-0.035785300000000006,1699.802065,-46.277984599999996,-275.625
1374,1375,0.06157705,-0.03551505,1699.802065,-51.14935299999999,-251.743416
1375,1376,0.0650082,-0.03559485,1699.802065,-56.0207195,-227.86183949999997
1376,1377,0.07292544999999999,-0.03561159999999999,1699.802065,-60.89208599999999,-203.98026249999998
1377,1378,0.08481934999999999,-0.0359129,1699.802065,-65.7634525,-180.09868600000001
1378,1379,0.09897315000000001,-0.03616275,1699.802065,-70.634819,-156.2171095
1379,1380,0.114365,-0.03634545,1699.802065,-75.50618739999999,-132.335529
1380,1381,0.13128099999999998,-0.036404399999999996,1699.802065,-80.377552,-108.45394885000002
1381,1382,0.147733,-0.0352649,1699.802065,-85.2489166,-84.5723686
1382,1383,0.1638365,-0.0333023,1699.802065,-90.120285,-60.69078825
1383,1384,0.19039099999999998,-0.006751795,1674.6979350000001,-2.43568468,-490.559204
1384,1385,0.178371,-0.020401700000000002,1674.6979350000001,-7.307051179999999,-466.67762749999997
1385,1386,0.1630295,-0.02714085,1674.6979350000001,-12.1784177,-442.796051
1386,1387,0.1488775,-0.0351091,1674.6979350000001,-17.049784199999998,-418.9144745
1387,1388,0.1264885,-0.0356769,1674.6979350000001,-21.9211502,-395.032898
1388,1389,0.1114865,-0.03593565,1674.6979350000001,-26.7925167,-371.1513215
1389,1390,0.0937982,-0.035515399999999996,1674.6979350000001,-31.6638832,-347.26974500000006
1390,1391,0.0802064,-0.034475450000000005,1674.6979350000001,-36.535251599999995,-323.388153
1391,1392,0.06814200000000001,-0.034139050000000004,1674.6979350000001,-41.406618099999996,-299.5065765
1392,1393,0.06003984999999999,-0.033316,1674.6979350000001,-46.277984599999996,-275.625
1393,1394,0.05788765,-0.0333734,1674.6979350000001,-51.14935299999999,-251.743416
1394,1395,0.06072905000000001,-0.03308485,1674.6979350000001,-56.0207195,-227.86183949999997
1395,1396,0.0697439,-0.033613050000000005,1674.6979350000001,-60.89208599999999,-203.98026249999998
1396,1397,0.08154185,-0.03388385000000001,1674.6979350000001,-65.7634525,-180.09868600000001
1397,1398,0.09611315000000001,-0.03479789999999999,1674.6979350000001,-70.634819,-156.2171095
1398,1399,0.11236399999999999,-0.03550085,1674.6979350000001,-75.50618739999999,-132.335529
1399,1400,0.1290625,-0.03623585,1674.6979350000001,-80.377552,-108.45394885000002
1400,1401,0.1481325,-0.036795999999999995,1674.6979350000001,-85.2489166,-84.5723686
1401,1402,0.16588999999999998,-0.0349565,1674.6979350000001,-90.120285,-60.69078825
1402,1403,0.20211099999999999,-0.008700365,1649.59375,-2.43568468,-490.559204
1403,1404,0.19059500000000001,-0.020634549999999998,1649.59375,-7.307051179999999,-466.67762749999997
1404,1405,0.17462450000000002,-0.035968150000000004,1649.59375,-12.1784177,-442.796051
1405,1406,0.143304,-0.03611640000000001,1649.59375,-17.049784199999998,-418.9144745
1406,1407,0.126192,-0.03547385,1649.59375,-21.9211502,-395.032898
1407,1408,0.105684,-0.03482115,1649.59375,-26.7925167,-371.1513215
1408,1409,0.08988465000000001,-0.032785,1649.59375,-31.6638832,-347.26974500000006
1409,1410,0.07498435,-0.0322737,1649.59375,-36.535251599999995,-323.388153
1410,1411,0.0626785,-0.03070655,1649.59375,-41.406618099999996,-299.5065765
1411,1412,0.0551017,-0.030632150000000004,1649.59375,-46.277984599999996,-275.625
1412,1413,0.05173395,-0.029825749999999998,1649.59375,-51.14935299999999,-251.743416
1413,1414,0.05622605,-0.03032245,1649.59375,-56.0207195,-227.86183949999997
1414,1415,0.0644123,-0.03028385,1649.59375,-60.89208599999999,-203.98026249999998
1415,1416,0.07733605000000002,-0.0314184,1649.59375,-65.7634525,-180.09868600000001
1416,1417,0.0917279,-0.03210325,1649.59375,-70.634819,-156.2171095
1417,1418,0.107935,-0.03382085,1649.59375,-75.50618739999999,-132.335529
1418,1419,0.125951,-0.03512785,1649.59375,-80.377552,-108.45394885000002
1419,1420,0.143868,-0.036789100000000005,1649.59375,-85.2489166,-84.5723686
1420,1421,0.16689900000000002,-0.03838005,1649.59375,-90.120285,-60.69078825
1421,1422,0.228476,-0.008323155,1624.489565,-2.43568468,-490.559204
1422,1423,0.213758,-0.0397248,1624.489565,-7.307051179999999,-466.67762749999997
1423,1424,0.163445,-0.03921,1624.489565,-12.1784177,-442.796051
1424,1425,0.14191550000000003,-0.0350301,1624.489565,-17.049784199999998,-418.9144745
1425,1426,0.118282,-0.0342601,1624.489565,-21.9211502,-395.032898
1426,1427,0.10004460000000001,-0.03061555,1624.489565,-26.7925167,-371.1513215
1427,1428,0.08335425,-0.0300267,1624.489565,-31.6638832,-347.26974500000006
1428,1429,0.06810045,-0.0275569,1624.489565,-36.535251599999995,-323.388153
1429,1430,0.05649735,-0.0273548,1624.489565,-41.406618099999996,-299.5065765
1430,1431,0.04713975,-0.0259201,1624.489565,-46.277984599999996,-275.625
1431,1432,0.0456047,-0.026264799999999998,1624.489565,-51.14935299999999,-251.743416
1432,1433,0.04867075,-0.0257511,1624.489565,-56.0207195,-227.86183949999997
1433,1434,0.05893225,-0.026777,1624.489565,-60.89208599999999,-203.98026249999998
1434,1435,0.0709979,-0.027110799999999997,1624.489565,-65.7634525,-180.09868600000001
1435,1436,0.08619645000000001,-0.028953,1624.489565,-70.634819,-156.2171095
1436,1437,0.1021145,-0.03009215,1624.489565,-75.50618739999999,-132.335529
1437,1438,0.119508,-0.03290699999999999,1624.489565,-80.377552,-108.45394885000002
1438,1439,0.1391235,-0.0348549,1624.489565,-85.2489166,-84.5723686
1439,1440,0.1587615,-0.038615449999999996,1624.489565,-90.120285,-60.69078825
1440,1441,0.275715,-0.04046935,1599.3854350000001,-2.43568468,-490.559204
1441,1442,0.191752,-0.04767445,1599.3854350000001,-7.307051179999999,-466.67762749999997
1442,1443,0.15721849999999998,-0.03344445,1599.3854350000001,-12.1784177,-442.796051
1443,1444,0.132053,-0.03351105,1599.3854350000001,-17.049784199999998,-418.9144745
1444,1445,0.110175,-0.0274813,1599.3854350000001,-21.9211502,-395.032898
1445,1446,0.0927143,-0.0271053,1599.3854350000001,-26.7925167,-371.1513215
1446,1447,0.07518174999999999,-0.0236491,1599.3854350000001,-31.6638832,-347.26974500000006
1447,1448,0.0612289,-0.0234187,1599.3854350000001,-36.535251599999995,-323.388153
1448,1449,0.04740045,-0.02133995,1599.3854350000001,-41.406618099999996,-299.5065765
1449,1450,0.039555950000000006,-0.02151865,1599.3854350000001,-46.277984599999996,-275.625
1450,1451,0.03561935,-0.0204829,1599.3854350000001,-51.14935299999999,-251.743416
1451,1452,0.04151225,-0.021265150000000003,1599.3854350000001,-56.0207195,-227.86183949999997
1452,1453,0.0508087,-0.02114095,1599.3854350000001,-60.89208599999999,-203.98026249999998
1453,1454,0.06470945,-0.022703550000000003,1599.3854350000001,-65.7634525,-180.09868600000001
1454,1455,0.0789434,-0.023413299999999998,1599.3854350000001,-70.634819,-156.2171095
1455,1456,0.09538830000000001,-0.02600605,1599.3854350000001,-75.50618739999999,-132.335529
1456,1457,0.11192,-0.027484500000000002,1599.3854350000001,-80.377552,-108.45394885000002
1457,1458,0.130644,-0.0317428,1599.3854350000001,-85.2489166,-84.5723686
1458,1459,0.150844,-0.0337904,1599.3854350000001,-90.120285,-60.69078825
1459,1460,0.1905505,0.008025525,1574.28125,-2.43568468,-490.559204
1460,1461,0.15677199999999997,-0.000660185,1574.28125,-7.307051179999999,-466.67762749999997
1461,1462,0.15067149999999999,-0.0166849,1574.28125,-12.1784177,-442.796051
1462,1463,0.139097,-0.0257461,1574.28125,-17.049784199999998,-418.9144745
1463,1464,0.130043,-0.0338196,1574.28125,-21.9211502,-395.032898
1464,1465,0.12026300000000001,-0.04040075,1574.28125,-26.7925167,-371.1513215
1465,1466,0.1101955,-0.04460185,1574.28125,-31.6638832,-347.26974500000006
1466,1467,0.102477,-0.048528550000000004,1574.28125,-36.535251599999995,-323.388153
1467,1468,0.09532569999999999,-0.05048075,1574.28125,-41.406618099999996,-299.5065765
1468,1469,0.09225515,-0.052324499999999996,1574.28125,-46.277984599999996,-275.625
1469,1470,0.09146645,-0.05276015,1574.28125,-51.14935299999999,-251.743416
1470,1471,0.09509825,-0.053004449999999995,1574.28125,-56.0207195,-227.86183949999997
1471,1472,0.10120100000000001,-0.05209975,1574.28125,-60.89208599999999,-203.98026249999998
1472,1473,0.110379,-0.0508204,1574.28125,-65.7634525,-180.09868600000001
1473,1474,0.12091750000000001,-0.048375249999999995,1574.28125,-70.634819,-156.2171095
1474,1475,0.1326775,-0.045158899999999995,1574.28125,-75.50618739999999,-132.335529
1475,1476,0.14508949999999998,-0.04075775,1574.28125,-80.377552,-108.45394885000002
1476,1477,0.1567075,-0.034606700000000004,1574.28125,-85.2489166,-84.5723686
1477,1478,0.16991499999999998,-0.027974400000000003,1574.28125,-90.120285,-60.69078825
1478,1479,0.187176,-0.014451949999999998,1549.177065,-2.43568468,-490.559204
1479,1480,0.1891825,-0.00818762,1549.177065,-7.307051179999999,-466.67762749999997
1480,1481,0.164178,-0.017606950000000003,1549.177065,-12.1784177,-442.796051
1481,1482,0.153966,-0.024774599999999997,1549.177065,-17.049784199999998,-418.9144745
1482,1483,0.137731,-0.03198005,1549.177065,-21.9211502,-395.032898
1483,1484,0.1234625,-0.0362684,1549.177065,-26.7925167,-371.1513215
1484,1485,0.1101115,-0.04065175,1549.177065,-31.6638832,-347.26974500000006
1485,1486,0.09717775000000001,-0.04284155,1549.177065,-36.535251599999995,-323.388153
1486,1487,0.08817795,-0.0450693,1549.177065,-41.406618099999996,-299.5065765
1487,1488,0.0817567,-0.045934100000000005,1549.177065,-46.277984599999996,-275.625
1488,1489,0.08099645,-0.04671785,1549.177065,-51.14935299999999,-251.743416
1489,1490,0.08447484999999999,-0.04652455,1549.177065,-56.0207195,-227.86183949999997
1490,1491,0.09282245,-0.0461353,1549.177065,-60.89208599999999,-203.98026249999998
1491,1492,0.10404550000000001,-0.044819750000000005,1549.177065,-65.7634525,-180.09868600000001
1492,1493,0.11777099999999999,-0.043156,1549.177065,-70.634819,-156.2171095
1493,1494,0.13284649999999998,-0.0403489,1549.177065,-75.50618739999999,-132.335529
1494,1495,0.14823399999999998,-0.0368637,1549.177065,-80.377552,-108.45394885000002
1495,1496,0.1652075,-0.0320265,1549.177065,-85.2489166,-84.5723686
1496,1497,0.17943599999999998,-0.02601445,1549.177065,-90.120285,-60.69078825
1497,1498,0.1914005,-0.010976050000000001,1524.0729350000001,-2.43568468,-490.559204
1498,1499,0.19269550000000002,-0.021331700000000002,1524.0729350000001,-7.307051179999999,-466.67762749999997
1499,1500,0.18359599999999998,-0.020145299999999998,1524.0729350000001,-12.1784177,-442.796051
1500,1501,0.163346,-0.0285514,1524.0729350000001,-17.049784199999998,-418.9144745
1501,1502,0.146258,-0.0311725,1524.0729350000001,-21.9211502,-395.032898
1502,1503,0.12838349999999998,-0.0359854,1524.0729350000001,-26.7925167,-371.1513215
1503,1504,0.1102195,-0.03749594999999999,1524.0729350000001,-31.6638832,-347.26974500000006
1504,1505,0.09539700000000001,-0.039661,1524.0729350000001,-36.535251599999995,-323.388153
1505,1506,0.08208745,-0.040414099999999994,1524.0729350000001,-41.406618099999996,-299.5065765
1506,1507,0.07437389999999999,-0.0413017,1524.0729350000001,-46.277984599999996,-275.625
1507,1508,0.07190099999999999,-0.041456400000000004,1524.0729350000001,-51.14935299999999,-251.743416
1508,1509,0.0764059,-0.04156965,1524.0729350000001,-56.0207195,-227.86183949999997
1509,1510,0.08609315000000001,-0.04109625,1524.0729350000001,-60.89208599999999,-203.98026249999998
1510,1511,0.09994919999999999,-0.040538500000000005,1524.0729350000001,-65.7634525,-180.09868600000001
1511,1512,0.116087,-0.0391995,1524.0729350000001,-70.634819,-156.2171095
1512,1513,0.133987,-0.037825149999999995,1524.0729350000001,-75.50618739999999,-132.335529
1513,1514,0.1529505,-0.0349846,1524.0729350000001,-80.377552,-108.45394885000002
1514,1515,0.17146899999999998,-0.03228055,1524.0729350000001,-85.2489166,-84.5723686
1515,1516,0.1918725,-0.0272122,1524.0729350000001,-90.120285,-60.69078825
1516,1517,0.20258800000000002,-0.01165565,1498.96875,-2.43568468,-490.559204
1517,1518,0.199802,-0.0185256,1498.96875,-7.307051179999999,-466.67762749999997
1518,1519,0.1902475,-0.029489050000000003,1498.96875,-12.1784177,-442.796051
1519,1520,0.1718705,-0.02914755,1498.96875,-17.049784199999998,-418.9144745
1520,1521,0.1525435,-0.035117300000000004,1498.96875,-21.9211502,-395.032898
1521,1522,0.129952,-0.0348506,1498.96875,-26.7925167,-371.1513215
1522,1523,0.11133099999999999,-0.0366089,1498.96875,-31.6638832,-347.26974500000006
1523,1524,0.09232435,-0.03654930000000001,1498.96875,-36.535251599999995,-323.388153
1524,1525,0.07791575,-0.037047,1498.96875,-41.406618099999996,-299.5065765
1525,1526,0.06740114999999999,-0.03704575,1498.96875,-46.277984599999996,-275.625
1526,1527,0.06448229999999999,-0.037170049999999996,1498.96875,-51.14935299999999,-251.743416
1527,1528,0.06926194999999999,-0.037086799999999996,1498.96875,-56.0207195,-227.86183949999997
1528,1529,0.08067335,-0.037058350000000004,1498.96875,-60.89208599999999,-203.98026249999998
1529,1530,0.0962162,-0.0367456,1498.96875,-65.7634525,-180.09868600000001
1530,1531,0.11467050000000001,-0.03662794999999999,1498.96875,-70.634819,-156.2171095
1531,1532,0.1343235,-0.03571495,1498.96875,-75.50618739999999,-132.335529
1532,1533,0.15568350000000003,-0.03547075,1498.96875,-80.377552,-108.45394885000002
1533,1534,0.1770695,-0.0328566,1498.96875,-85.2489166,-84.5723686
1534,1535,0.1980975,-0.03178975,1498.96875,-90.120285,-60.69078825
1535,1536,0.21586149999999998,-0.00875947,1473.864565,-2.43568468,-490.559204
1536,1537,0.210021,-0.02435585,1473.864565,-7.307051179999999,-466.67762749999997
1537,1538,0.194394,-0.02818615,1473.864565,-12.1784177,-442.796051
1538,1539,0.178857,-0.0374455,1473.864565,-17.049784199999998,-418.9144745
1539,1540,0.15116000000000002,-0.03493739999999999,1473.864565,-21.9211502,-395.032898
1540,1541,0.1312215,-0.03597735,1473.864565,-26.7925167,-371.1513215
1541,1542,0.10815449999999999,-0.0344863,1473.864565,-31.6638832,-347.26974500000006
1542,1543,0.0895646,-0.034108700000000006,1473.864565,-36.535251599999995,-323.388153
1543,1544,0.07240744999999998,-0.03344385,1473.864565,-41.406618099999996,-299.5065765
1544,1545,0.060966799999999995,-0.033097600000000005,1473.864565,-46.277984599999996,-275.625
1545,1546,0.057144650000000005,-0.032918600000000006,1473.864565,-51.14935299999999,-251.743416
1546,1547,0.0625071,-0.0328818,1473.864565,-56.0207195,-227.86183949999997
1547,1548,0.07521545,-0.03301975,1473.864565,-60.89208599999999,-203.98026249999998
1548,1549,0.0923342,-0.03338525,1473.864565,-65.7634525,-180.09868600000001
1549,1550,0.11168600000000001,-0.0337082,1473.864565,-70.634819,-156.2171095
1550,1551,0.133328,-0.03463405,1473.864565,-75.50618739999999,-132.335529
1551,1552,0.15483249999999998,-0.03468,1473.864565,-80.377552,-108.45394885000002
1552,1553,0.179372,-0.0362405,1473.864565,-85.2489166,-84.5723686
1553,1554,0.201095,-0.03396415,1473.864565,-90.120285,-60.69078825
1554,1555,0.2301525,-0.0108847,1448.7604350000001,-2.43568468,-490.559204
1555,1556,0.22093599999999997,-0.022932,1448.7604350000001,-7.307051179999999,-466.67762749999997
1556,1557,0.20701550000000002,-0.0404639,1448.7604350000001,-12.1784177,-442.796051
1557,1558,0.17078300000000002,-0.03748355,1448.7604350000001,-17.049784199999998,-418.9144745
1558,1559,0.151231,-0.03705045,1448.7604350000001,-21.9211502,-395.032898
1559,1560,0.125037,-0.0340767,1448.7604350000001,-26.7925167,-371.1513215
1560,1561,0.1045965,-0.0322907,1448.7604350000001,-31.6638832,-347.26974500000006
1561,1562,0.08363455,-0.030642999999999997,1448.7604350000001,-36.535251599999995,-323.388153
1562,1563,0.0663295,-0.029409650000000002,1448.7604350000001,-41.406618099999996,-299.5065765
1563,1564,0.053501099999999996,-0.028737949999999998,1448.7604350000001,-46.277984599999996,-275.625
1564,1565,0.04909565,-0.02826265,1448.7604350000001,-51.14935299999999,-251.743416
1565,1566,0.055398649999999994,-0.028338250000000002,1448.7604350000001,-56.0207195,-227.86183949999997
1566,1567,0.06913155000000001,-0.02863285,1448.7604350000001,-60.89208599999999,-203.98026249999998
1567,1568,0.0871604,-0.02940115,1448.7604350000001,-65.7634525,-180.09868600000001
1568,1569,0.10759200000000001,-0.030578099999999997,1448.7604350000001,-70.634819,-156.2171095
1569,1570,0.128735,-0.0320402,1448.7604350000001,-75.50618739999999,-132.335529
1570,1571,0.15242250000000002,-0.0343618,1448.7604350000001,-80.377552,-108.45394885000002
1571,1572,0.1743835,-0.0360961,1448.7604350000001,-85.2489166,-84.5723686
1572,1573,0.2025265,-0.039369299999999996,1448.7604350000001,-90.120285,-60.69078825
1573,1574,0.25869149999999996,-0.009675590000000001,1423.65625,-2.43568468,-490.559204
1574,1575,0.24716100000000002,-0.045430849999999995,1423.65625,-7.307051179999999,-466.67762749999997
1575,1576,0.1911115,-0.04277935,1423.65625,-12.1784177,-442.796051
1576,1577,0.16907250000000001,-0.03817825,1423.65625,-17.049784199999998,-418.9144745
1577,1578,0.1405655,-0.034780149999999996,1423.65625,-21.9211502,-395.032898
1578,1579,0.119182,-0.0308663,1423.65625,-26.7925167,-371.1513215
1579,1580,0.09672545,-0.02834325,1423.65625,-31.6638832,-347.26974500000006
1580,1581,0.07667169999999998,-0.02589615,1423.65625,-36.535251599999995,-323.388153
1581,1582,0.05840465,-0.0245301,1423.65625,-41.406618099999996,-299.5065765
1582,1583,0.0444572,-0.023317650000000002,1423.65625,-46.277984599999996,-275.625
1583,1584,0.0400002,-0.0229767,1423.65625,-51.14935299999999,-251.743416
1584,1585,0.04695099999999999,-0.02284415,1423.65625,-56.0207195,-227.86183949999997
1585,1586,0.06222535,-0.023482950000000002,1423.65625,-60.89208599999999,-203.98026249999998
1586,1587,0.08087710000000001,-0.024423149999999998,1423.65625,-65.7634525,-180.09868600000001
1587,1588,0.10125585,-0.026156399999999996,1423.65625,-70.634819,-156.2171095
1588,1589,0.12297250000000001,-0.0283067,1423.65625,-75.50618739999999,-132.335529
1589,1590,0.1446225,-0.03143015,1423.65625,-80.377552,-108.45394885000002
1590,1591,0.16928100000000001,-0.034920200000000005,1423.65625,-85.2489166,-84.5723686
1591,1592,0.1917015,-0.03947815,1423.65625,-90.120285,-60.69078825
1592,1593,0.31274349999999995,-0.0464117,1398.552065,-2.435684085,-490.559204
1593,1594,0.2201065,-0.053794499999999995,1398.552065,-7.307050825,-466.67762749999997
1594,1595,0.1839905,-0.0377146,1398.552065,-12.178417465,-442.796051
1595,1596,0.1553975,-0.035542699999999997,1398.552065,-17.049784199999998,-418.9144745
1596,1597,0.13144,-0.028675750000000003,1398.552065,-21.921150675,-395.032898
1597,1598,0.10937049999999998,-0.0258805,1398.552065,-26.792517175,-371.1513215
1598,1599,0.08815324999999999,-0.022057550000000002,1398.552065,-31.663883675,-347.26974500000006
1599,1600,0.0680736,-0.02003385,1398.552065,-36.535251599999995,-323.388153
1600,1601,0.0490525,-0.0179409,1398.552065,-41.406618099999996,-299.5065765
1601,1602,0.0340553,-0.017009899999999998,1398.552065,-46.277984599999996,-275.625
1602,1603,0.028462,-0.0162494,1398.552065,-51.14935299999999,-251.743416
1603,1604,0.0378174,-0.016434499999999998,1398.552065,-56.0207195,-227.86183949999997
1604,1605,0.05433165,-0.01689085,1398.552065,-60.89208599999999,-203.98026249999998
1605,1606,0.07375754999999999,-0.0182774,1398.552065,-65.7634525,-180.09868600000001
1606,1607,0.09400485,-0.01997525,1398.552065,-70.634819,-156.2171095
1607,1608,0.11492249999999998,-0.022868049999999997,1398.552065,-75.50618739999999,-132.335529
1608,1609,0.13631349999999998,-0.025819099999999998,1398.552065,-80.377553925,-108.45394885000002
1609,1610,0.1583825,-0.0310053,1398.552065,-85.248918525,-84.5723686
1610,1611,0.182517,-0.03478534999999999,1398.552065,-90.120285,-60.69078825
1611,1612,4.03579e-15,0.0,2602.666625,95.0419769,-36.5625
1612,1613,6.321255e-16,0.0,2602.666625,100.01399229999998,-12.1875
1613,1614,2.282e-15,0.0,2626.0,95.0419769,-36.5625
1614,1615,3.39272e-15,-1.525515e-15,2626.0,100.01399229999998,-12.1875
1615,1616,2.700075e-15,-1.5255149999999999e-15,2649.333375,95.0419769,-36.5625
1616,1617,3.5462799999999997e-15,-1.525515e-15,2649.333375,100.01399229999998,-12.1875
1617,1618,0.0519425,-0.0295709,2578.447875,-95.0419769,-36.5625
1618,1619,0.0441125,-0.025431000000000002,2578.447875,-100.01399229999998,-12.1875
1619,1620,0.05354685,-0.030312600000000002,2553.34375,-95.0419769,-36.5625
1620,1621,0.044450050000000005,-0.025441450000000004,2553.34375,-100.01399229999998,-12.1875
1621,1622,0.05328315000000001,-0.0297503,2528.239625,-95.0419769,-36.5625
1622,1623,0.044136,-0.02450495,2528.239625,-100.01399229999998,-12.1875
1623,1624,0.05408675,-0.029530050000000002,2503.135375,-95.0419769,-36.5625
1624,1625,0.046426800000000004,-0.0246833,2503.135375,-100.01399229999998,-12.1875
1625,1626,0.055990200000000004,-0.0299394,2478.03125,-95.0419769,-36.5625
1626,1627,0.0491162,-0.024848349999999998,2478.03125,-100.01399229999998,-12.1875
1627,1628,0.058766900000000004,-0.0307681,2452.927125,-95.0419769,-36.5625
1628,1629,0.05329445,-0.02553395,2452.927125,-100.01399229999998,-12.1875
1629,1630,0.06277945,-0.03266855,2427.822875,-95.0419769,-36.5625
1630,1631,0.05948155,-0.027622149999999998,2427.822875,-100.01399229999998,-12.1875
1631,1632,0.06130125,-0.03217105,2402.71875,-95.0419769,-36.5625
1632,1633,0.06511685,-0.028644700000000002,2402.71875,-100.01399229999998,-12.1875
1633,1634,0.0622317,-0.02639715,2377.614625,-95.0419769,-36.5625
1634,1635,0.05407284999999999,-0.02159615,2377.614625,-100.01399229999998,-12.1875
1635,1636,0.0674728,-0.0273356,2352.510375,-95.0419769,-36.5625
1636,1637,0.0607968,-0.0226624,2352.510375,-100.01399229999998,-12.1875
1637,1638,0.07129964999999999,-0.0279019,2327.40625,-95.0419769,-36.5625
1638,1639,0.0666654,-0.0226272,2327.40625,-100.01399229999998,-12.1875
1639,1640,0.07500594999999999,-0.02801245,2302.302125,-95.0419769,-36.5625
1640,1641,0.07237669999999999,-0.02332355,2302.302125,-100.01399229999998,-12.1875
1641,1642,0.07852565,-0.0285531,2277.197875,-95.0419769,-36.5625
1642,1643,0.0772988,-0.0234364,2277.197875,-100.01399229999998,-12.1875
1643,1644,0.08208915,-0.0289033,2252.09375,-95.0419769,-36.5625
1644,1645,0.0825447,-0.02400215,2252.09375,-100.01399229999998,-12.1875
1645,1646,0.0862163,-0.03009305,2226.989625,-95.0419769,-36.5625
1646,1647,0.08782580000000001,-0.02482285,2226.989625,-100.01399229999998,-12.1875
1647,1648,0.09052980000000001,-0.0318324,2201.885375,-95.0419769,-36.5625
1648,1649,0.09431149999999999,-0.02644705,2201.885375,-100.01399229999998,-12.1875
1649,1650,0.09532204999999999,-0.03525855,2176.78125,-95.0419769,-36.5625
1650,1651,0.1012217,-0.030078749999999998,2176.78125,-100.01399229999998,-12.1875
1651,1652,0.09054565,-0.0350563,2151.677125,-95.0419769,-36.5625
1652,1653,0.10855800000000002,-0.03223235,2151.677125,-100.01399229999998,-12.1875
1653,1654,0.09298959999999999,-0.022826,2126.572875,-95.0419769,-36.5625
1654,1655,0.09470545,-0.01731415,2126.572875,-100.01399229999998,-12.1875
1655,1656,0.103392,-0.024075,2101.46875,-95.0419769,-36.5625
1656,1657,0.103349,-0.0195652,2101.46875,-100.01399229999998,-12.1875
1657,1658,0.1101615,-0.02609795,2076.364625,-95.0419769,-36.5625
1658,1659,0.1123665,-0.020837800000000004,2076.364625,-100.01399229999998,-12.1875
1659,1660,0.11538300000000001,-0.02679025,2051.260435,-95.0419769,-36.5625
1660,1661,0.119277,-0.02239245,2051.260435,-100.01399229999998,-12.1875
1661,1662,0.120202,-0.027732549999999995,2026.15625,-95.0419769,-36.5625
1662,1663,0.124782,-0.02242605,2026.15625,-100.01399229999998,-12.1875
1663,1664,0.123987,-0.0281613,2001.052065,-95.0419769,-36.5625
1664,1665,0.13108950000000003,-0.023324150000000002,2001.052065,-100.01399229999998,-12.1875
1665,1666,0.12848700000000002,-0.029127,1975.9479350000001,-95.0419769,-36.5625
1666,1667,0.13603300000000002,-0.024063550000000003,1975.9479350000001,-100.01399229999998,-12.1875
1667,1668,0.13259700000000002,-0.0307507,1950.84375,-95.0419769,-36.5625
1668,1669,0.141788,-0.025305599999999998,1950.84375,-100.01399229999998,-12.1875
1669,1670,0.1369635,-0.033438999999999997,1925.739565,-95.0419769,-36.5625
1670,1671,0.1483855,-0.0279077,1925.739565,-100.01399229999998,-12.1875
1671,1672,0.1408055,-0.0384152,1900.6354350000001,-95.0419769,-36.5625
1672,1673,0.154391,-0.033101950000000005,1900.6354350000001,-100.01399229999998,-12.1875
1673,1674,0.1314575,-0.0385905,1875.53125,-95.0419769,-36.5625
1674,1675,0.1619835,-0.036511,1875.53125,-100.01399229999998,-12.1875
1675,1676,0.13448100000000002,-0.01913645,1850.427065,-95.0419769,-36.5625
1676,1677,0.147426,-0.0128213,1850.427065,-100.01399229999998,-12.1875
1677,1678,0.15011999999999998,-0.020718800000000002,1825.3229350000001,-95.0419769,-36.5625
1678,1679,0.156618,-0.016397000000000002,1825.3229350000001,-100.01399229999998,-12.1875
1679,1680,0.15873199999999998,-0.0243798,1800.21875,-95.0419769,-36.5625
1680,1681,0.1674775,-0.019183150000000003,1800.21875,-100.01399229999998,-12.1875
1681,1682,0.1649775,-0.02586335,1775.114565,-95.0419769,-36.5625
1682,1683,0.174842,-0.0217107,1775.114565,-100.01399229999998,-12.1875
1683,1684,0.170377,-0.0274062,1750.0104350000001,-95.0419769,-36.5625
1684,1685,0.1807195,-0.02204285,1750.0104350000001,-100.01399229999998,-12.1875
1685,1686,0.174309,-0.0281613,1724.90625,-95.0419769,-36.5625
1686,1687,0.187488,-0.023324150000000002,1724.90625,-100.01399229999998,-12.1875
1687,1688,0.179034,-0.029453299999999998,1699.802065,-95.0419769,-36.5625
1688,1689,0.19226900000000002,-0.02444685,1699.802065,-100.01399229999998,-12.1875
1689,1690,0.182987,-0.0316776,1674.6979350000001,-95.0419769,-36.5625
1690,1691,0.19798349999999998,-0.02598745,1674.6979350000001,-100.01399229999998,-12.1875
1691,1692,0.1868675,-0.0351572,1649.59375,-95.0419769,-36.5625
1692,1693,0.20454,-0.02956235,1649.59375,-100.01399229999998,-12.1875
1693,1694,0.18960149999999998,-0.04177145,1624.489565,-95.0419769,-36.5625
1694,1695,0.2093845,-0.036270199999999995,1624.489565,-100.01399229999998,-12.1875
1695,1696,0.1753845,-0.04228005,1599.3854350000001,-95.0419769,-36.5625
1696,1697,0.216996,-0.041003899999999996,1599.3854350000001,-100.01399229999998,-12.1875
1697,1698,0.17950549999999998,-0.016570150000000002,1574.28125,-95.0419769,-36.5625
1698,1699,0.201988,-0.009362585,1574.28125,-100.01399229999998,-12.1875
1699,1700,0.19999299999999998,-0.01853325,1549.177065,-95.0419769,-36.5625
1700,1701,0.2113065,-0.0145381,1549.177065,-100.01399229999998,-12.1875
1701,1702,0.2093515,-0.0246614,1524.0729350000001,-95.0419769,-36.5625
1702,1703,0.22364499999999998,-0.01936005,1524.0729350000001,-100.01399229999998,-12.1875
1703,1704,0.21632600000000002,-0.02748325,1498.96875,-95.0419769,-36.5625
1704,1705,0.230501,-0.02385835,1498.96875,-100.01399229999998,-12.1875
1705,1706,0.22158899999999998,-0.03198625,1473.864565,-95.0419769,-36.5625
1706,1707,0.2365525,-0.02567325,1473.864565,-100.01399229999998,-12.1875
1707,1708,0.224916,-0.035857,1448.7604350000001,-95.0419769,-36.5625
1708,1709,0.244597,-0.03067885,1448.7604350000001,-100.01399229999998,-12.1875
1709,1710,0.22762100000000002,-0.04444795,1423.65625,-95.0419769,-36.5625
1710,1711,0.24863250000000003,-0.03852545,1423.65625,-100.01399229999998,-12.1875
1711,1712,0.209454,-0.04517175,1398.552065,-95.0419769,-36.5625
1712,1713,0.25697000000000003,-0.04471315000000001,1398.552065,-100.01399229999998,-12.1875
1713,1714,7.1997e-15,-9.534445e-16,2602.666625,13.2644758,100.75370025000001
1714,1715,7.71946e-15,3.6230899999999995e-15,2626.0,13.2644758,100.75370025000001
1715,1716,1.10931e-14,2.76499e-15,2649.333375,13.2644758,100.75370025000001
1716,1717,9.32471e-15,3.813785e-15,2602.666625,38.8894758,93.88750075
1717,1718,1.028196e-14,3.2417150000000003e-15,2626.0,38.8894758,93.88750075
1718,1719,5.155665e-15,1.7162e-15,2649.333375,38.8894758,93.88750075
1719,1720,1.3729999999999999e-14,5.720675e-15,2602.666625,61.86422350000001,80.623024
1720,1721,3.45828e-15,3.813785e-16,2626.0,61.86422350000001,80.623024
1721,1722,1.11413e-14,-7.62758e-16,2649.333375,61.86422350000001,80.623024
1722,1723,1.257605e-14,-1.5255149999999999e-15,2602.666625,80.623024,61.8642235
1723,1724,3.830645e-15,-1.5255099999999998e-15,2626.0,80.623024,61.8642235
1724,1725,6.467255e-15,2.28827e-15,2649.333375,80.623024,61.8642235
1725,1726,8.233005e-15,-7.62757e-16,2602.666625,93.88750075,38.8894758
1726,1727,6.7038849999999995e-15,-3.0510250000000003e-15,2626.0,93.88750075,38.8894758
1727,1728,1.13371e-14,3.0510250000000003e-15,2649.333375,93.88750075,38.8894758
1728,1729,4.875334999999999e-15,1.52551e-15,2602.666625,100.75370025000001,13.2644758
1729,1730,4.812965e-15,-1.525515e-15,2626.0,100.75370025000001,13.2644758
1730,1731,1.072605e-14,2.28827e-15,2649.333375,100.75370025000001,13.2644758
1731,2140,5.620995e-15,-2.2882700000000004e-15,,,
1732,2141,3.4191900000000002e-15,-1.525515e-15,,,
1733,2142,4.159725e-15,0.0,,,
1734,2143,2.540465e-15,7.627559999999999e-16,,,
1735,2144,4.2357e-15,7.627564999999999e-16,,,
1736,2145,2.858325e-15,-7.627565e-16,,,
1737,2146,0.166463,0.0176478,,,
1738,2147,0.17607899999999999,0.02196655,,,
1739,2148,0.172062,0.02060285,,,
1740,2149,0.161153,0.019239649999999997,,,
1741,2150,0.145847,0.0231458,,,
1742,2151,0.14391700000000002,0.01276685,,,
1743,2152,0.144113,0.0269905,,,
1744,2153,0.1220955,0.02448665,,,
1745,2154,0.12988449999999999,0.027831099999999998,,,
1746,2155,0.124418,0.026847700000000002,,,
1747,2156,0.118459,0.02603875,,,
1748,2157,0.1082645,0.028396200000000003,,,
1749,2158,0.10338699999999999,0.019288600000000003,,,
1750,2159,0.109517,0.033064899999999994,,,
1751,2160,0.08328855000000002,0.029395249999999998,,,
1752,2161,0.0888796,0.0339633,,,
1753,2162,0.0829606,0.0310625,,,
1754,2163,0.0781476,0.0287978,,,
1755,2164,0.07827234999999999,0.0325992,,,
1756,2165,0.06740425,0.023823499999999997,,,
1757,2166,0.08248585,0.037805000000000005,,,
1758,2167,0.05511265,0.0308079,,,
1759,2168,0.0629541,0.034679100000000004,,,
1760,2169,0.0612752,0.033721100000000004,,,
1761,2170,0.05784985,0.0321182,,,
1762,2171,0.061034849999999995,0.034531450000000005,,,
1763,2172,0.0477718,0.02685945,,,
1764,2173,0.06844095,0.0390405,,,
1765,2174,0.051472500000000004,0.0224793,,,
1766,2175,0.05872034999999999,0.02876815,,,
1767,2176,0.0608447,0.03206805,,,
1768,2177,0.0690954,0.0372909,,,
1769,2178,0.07860985000000001,0.0425751,,,
1770,2179,0.05588665,0.02906935,,,
1771,2180,0.07297175,0.0393763,,,
1772,2181,0.07097410000000001,0.01142644,,,
1773,2182,0.07212665,0.01951995,,,
1774,2183,0.07342795,0.02688215,,,
1775,2184,0.0788917,0.035759200000000005,,,
1776,2185,0.08421065,0.0428892,,,
1777,2186,0.0731453,0.0256404,,,
1778,2187,0.07199725,0.031455250000000004,,,
1779,2188,0.08437295,0.032050800000000004,,,
1780,2189,0.0916064,0.02691355,,,
1781,2190,0.08655370000000001,0.0261565,,,
1782,2191,0.08597165,0.022936150000000002,,,
1783,2192,0.09637604999999999,0.045794699999999994,,,
1784,2193,0.1045865,0.040167549999999996,,,
1785,2194,0.10089799999999999,0.04287415,,,
1786,2195,0.09921415,0.033879,,,
1787,2196,0.09667265,0.03322765,,,
1788,2197,0.09830595,0.02925195,,,
1789,2198,0.09208055000000001,0.024774599999999997,,,
1790,2199,0.09417245,0.0213572,,,
1791,2200,0.0864129,0.0148786,,,
1792,2201,0.0893189,0.0161423,,,
1793,2202,2.25357e-15,0.0,,,
1794,2203,2.6557899999999997e-15,-7.62757e-16,,,
1795,2204,2.790285e-15,-1.525515e-15,,,
1796,2205,2.428405e-15,-7.627565e-16,,,
1797,2206,6.044125e-15,0.0,,,
1798,2207,8.301884999999998e-15,7.627555e-16,,,
1799,2208,3.35829e-15,-1.525515e-15,,,
1800,2209,2.668145e-15,-1.5255149999999999e-15,,,
1801,2210,2.4061e-15,-7.62757e-16,,,
1802,2211,4.099445e-15,-2.28827e-15,,,
1803,2212,8.60936e-16,0.0,,,
1804,2213,2.439005e-15,7.627565e-16,,,
1805,2214,2.7463050000000004e-15,1.5255149999999999e-15,,,
1806,2215,4.89222e-15,1.52551e-15,,,
1807,2216,4.214385e-15,7.627565e-16,,,
1808,2217,3.412765e-15,-1.52551e-15,,,
1809,2218,4.040915e-15,0.0,,,
1810,2219,4.84548e-15,-1.52551e-15,,,
1811,2220,1.0939550000000001e-14,-6.10205e-15,,,
1812,2221,2.54504e-15,-7.627565e-16,,,
1813,2222,1.3284599999999999e-15,-7.627565e-16,,,
1814,2223,4.266095e-15,7.62755e-16,,,
1815,2224,2.516985e-15,7.627564999999998e-16,,,
1816,2225,3.98845e-15,0.0,,,
1817,2226,8.433735000000001e-15,-1.525515e-15,,,
1818,2227,2.451305e-15,-7.627565e-16,,,
1819,2228,4.49136e-15,-2.2882699999999996e-15,,,
1820,2229,2.04593e-15,0.0,,,
1821,2230,4.242815e-15,7.62758e-16,,,
1822,2231,2.48864e-15,-7.627565e-16,,,
1823,2232,2.48125e-15,7.627564999999999e-16,,,
1824,2233,6.62393e-15,-3.051025e-15,,,
1825,2234,4.05914e-15,0.0,,,
1826,2235,4.4557e-15,7.62757e-16,,,
1827,2236,5.6949600000000005e-15,3.051025e-15,,,
1828,2237,7.0819950000000004e-15,1.52551e-15,,,
1829,2238,2.698645e-15,1.525515e-15,,,
1830,2239,2.7128549999999998e-15,7.627565e-16,,,
1831,2240,1.77014e-15,7.627565e-16,,,
1832,2241,4.8749399999999995e-15,-1.525515e-15,,,
1833,2242,4.89736e-15,-1.525515e-15,,,
1834,2243,3.44695e-15,-1.525515e-15,,,
1835,2244,2.715685e-15,7.627565e-16,,,
1836,2245,2.14415e-15,0.0,,,
1837,2246,1.56229e-15,-7.627565e-16,,,
1838,2247,4.027e-15,2.28827e-15,,,
1839,2248,2.1299650000000003e-15,0.0,,,
1840,2249,2.46866e-15,-7.627565e-16,,,
1841,2250,1.622565e-15,-7.627565e-16,,,
1842,2251,2.560595e-15,-7.627565e-16,,,
1843,2252,1.993485e-15,0.0,,,
1844,2253,1.58249e-15,-7.627565e-16,,,
1845,2254,2.4122e-15,-7.627569999999999e-16,,,
1846,2255,2.69067e-15,-1.5255100000000002e-15,,,
1847,2256,4.97018e-15,-1.525515e-15,,,
1848,2257,3.53585e-15,-7.627565e-16,,,
1849,2258,2.13613e-15,0.0,,,
1850,2259,0.09840474999999999,0.027751,,,
1851,2260,0.10605800000000001,0.02739355,,,
1852,2261,0.1137015,0.027447399999999997,,,
1853,2262,0.12152149999999999,0.027423549999999998,,,
1854,2263,0.129424,0.02742675,,,
1855,2264,0.1374065,0.0274251,,,
1856,2265,0.1454535,0.0274253,,,
1857,2266,0.153554,0.02742515,,,
1858,2267,0.16170050000000002,0.0274251,,,
1859,2268,0.169886,0.027424900000000002,,,
1860,2269,0.17810399999999998,0.02742385,,,
1861,2270,0.186352,0.02742165,,,
1862,2271,0.1946125,0.0274071,,,
1863,2272,0.202913,0.027381600000000006,,,
1864,2273,0.2110435,0.0271838,,,
1865,2274,0.21950550000000002,0.026893350000000003,,,
1866,2275,0.2253095,0.02419285,,,
1867,2276,0.23699749999999997,0.02103965,,,
1868,2277,0.2241175,-0.01609115,,,
1869,2278,0.09626565000000001,0.024288,,,
1870,2279,0.10346035,0.02406855,,,
1871,2280,0.11149399999999998,0.0241608,,,
1872,2281,0.11941500000000002,0.0241477,,,
1873,2282,0.127462,0.02415385,,,
1874,2283,0.135557,0.024153050000000002,,,
1875,2284,0.1437075,0.0241535,,,
1876,2285,0.1519005,0.02415345,,,
1877,2286,0.1601305,0.02415355,,,
1878,2287,0.1683925,0.024153849999999998,,,
1879,2288,0.17668099999999998,0.024154500000000002,,,
1880,2289,0.184993,0.024158449999999998,,,
1881,2290,0.19333,0.024165899999999997,,,
1882,2291,0.20167200000000002,0.02421955,,,
1883,2292,0.21012199999999998,0.024306,,,
1884,2293,0.21832200000000002,0.02503615,,,
1885,2294,0.2279895,0.02600075,,,
1886,2295,0.234287,0.03600829999999999,,,
1887,2296,0.2667935,0.046136800000000006,,,
1888,2297,0.11187350000000001,0.038001999999999994,,,
1889,2298,0.11935300000000001,0.0362005,,,
1890,2299,0.127236,0.03525355,,,
1891,2300,0.135384,0.03452775,,,
1892,2301,0.143905,0.03414685,,,
1893,2302,0.1524145,0.033666249999999995,,,
1894,2303,0.161225,0.03341925,,,
1895,2304,0.16972949999999998,0.032806800000000004,,,
1896,2305,0.178645,0.0325099,,,
1897,2306,0.18676749999999998,0.03135885,,,
1898,2307,0.19567600000000002,0.030849800000000004,,,
1899,2308,0.2028295,0.028389650000000002,,,
1900,2309,0.21165299999999998,0.0273901,,,
1901,2310,0.21680349999999998,0.02187215,,,
1902,2311,0.22535,0.019660900000000002,,,
1903,2312,0.22679449999999998,0.0067608,,,
1904,2313,0.23139700000000002,0.0007387295,,,
1905,2314,0.228445,-0.02411385,,,
1906,2315,0.24768050000000003,-0.0322958,,,
1907,2316,0.1086915,0.0323263,,,
1908,2317,0.116078,0.031236849999999997,,,
1909,2318,0.12444649999999999,0.030762200000000003,,,
1910,2319,0.132966,0.0305092,,,
1911,2320,0.1416315,0.03022615,,,
1912,2321,0.15058749999999999,0.03008215,,,
1913,2322,0.1593895,0.0297876,,,
1914,2323,0.1686545,0.0296395,,,
1915,2324,0.17733500000000002,0.02915635,,,
1916,2325,0.1869765,0.0289317,,,
1917,2326,0.1951795,0.0279521,,,
1918,2327,0.2055455,0.0275479,,,
1919,2328,0.21265,0.02544655,,,
1920,2329,0.2247575,0.0247152,,,
1921,2330,0.2296925,0.02004355,,,
1922,2331,0.2456045,0.0186389,,,
1923,2332,0.246778,0.005321945,,,
1924,2333,0.26180800000000004,-0.00219424,,,
1925,2334,0.2420975,-0.002305965,,,
1926,2335,0.1036995,0.0259862,,,
1927,2336,0.112673,0.02617025,,,
1928,2337,0.12129499999999999,0.026149300000000004,,,
1929,2338,0.13035049999999998,0.02626495,,,
1930,2339,0.139431,0.02632955,,,
1931,2340,0.1485215,0.02635105,,,
1932,2341,0.1578805,0.0263641,,,
1933,2342,0.16695200000000002,0.02636615,,,
1934,2343,0.1766855,0.026367250000000002,,,
1935,2344,0.185581,0.026370900000000003,,,
1936,2345,0.19600299999999998,0.0263778,,,
1937,2346,0.204403,0.026416300000000004,,,
1938,2347,0.2163475,0.026490400000000004,,,
1939,2348,0.223619,0.02667425,,,
1940,2349,0.2392105,0.02709205,,,
1941,2350,0.244019,0.0269941,,,
1942,2351,0.270535,0.0277279,,,
1943,2352,0.270841,0.018366900000000002,,,
1944,2353,0.24790600000000002,0.00604237,,,
1945,2354,0.1003724,0.0214406,,,
1946,2355,0.1089445,0.021291949999999997,,,
1947,2356,0.11844249999999999,0.0218614,,,
1948,2357,0.12773049999999997,0.0221301,,,
1949,2358,0.1371795,0.02246375,,,
1950,2359,0.1465975,0.0226372,,,
1951,2360,0.15594999999999998,0.02294075,,,
1952,2361,0.16555550000000002,0.023094299999999998,,,
1953,2362,0.1748305,0.023579700000000002,,,
1954,2363,0.184789,0.023807500000000002,,,
1955,2364,0.1938795,0.02480325,,,
1956,2365,0.204562,0.02523835,,,
1957,2366,0.21320300000000003,0.02742425,,,
1958,2367,0.22549999999999998,0.02833735,,,
1959,2368,0.233188,0.033039650000000004,,,
1960,2369,0.2500365,0.03482495000000001,,,
1961,2370,0.25695,0.04452285,,,
1962,2371,0.29271349999999996,0.04734530000000001,,,
1963,2372,0.28140200000000004,0.0132758,,,
1964,2373,0.09723875,0.01681875,,,
1965,2374,0.10624600000000001,0.0174445,,,
1966,2375,0.1156665,0.0177105,,,
1967,2376,0.1254355,0.01827955,,,
1968,2377,0.13500299999999998,0.0185576,,,
1969,2378,0.1446015,0.01902965,,,
1970,2379,0.154123,0.019271200000000002,,,
1971,2380,0.1635995,0.01988625,,,
1972,2381,0.173104,0.02018615,,,
1973,2382,0.182469,0.0213408,,,
1974,2383,0.191972,0.0218564,,,
1975,2384,0.2011505,0.0242992,,,
1976,2385,0.2106465,0.02527345,,,
1977,2386,0.21959700000000001,0.030491499999999998,,,
1978,2387,0.22928949999999998,0.032165299999999994,,,
1979,2388,0.2389865,0.04313185,,,
1980,2389,0.2507785,0.04495045,,,
1981,2390,0.269123,0.0660554,,,
1982,2391,0.33968600000000004,0.0571334,,,
1983,2392,0.0533195,0.03073615,,,
1984,2393,0.0517442,0.0296834,,,
1985,2394,0.051205799999999996,0.02924205,,,
1986,2395,0.05040285,0.02863965,,,
1987,2396,0.050089150000000006,0.0283508,,,
1988,2397,0.049773899999999996,0.028051,,,
1989,2398,0.049527,0.02780935,,,
1990,2399,0.049482,0.027666299999999998,,,
1991,2400,0.04906555,0.02732035,,,
1992,2401,0.04909515,0.027211449999999998,,,
1993,2402,0.0481791,0.02656985,,,
1994,2403,0.048003599999999993,0.026345050000000002,,,
1995,2404,0.04598405,0.02509135,,,
1996,2405,0.044993950000000005,0.024485100000000003,,,
1997,2406,0.0407879,0.022155,,,
1998,2407,0.03794215000000001,0.02085335,,,
1999,2408,0.030027400000000003,0.016954050000000002,,,
2000,2409,0.02728545,0.01548855,,,
2001,2410,0.0361596,0.00794619,,,
2002,2411,0.051560049999999996,0.0296683,,,
2003,2412,0.050625649999999994,0.02899785,,,
2004,2413,0.04984725,0.028376399999999996,,,
2005,2414,0.04957805,0.0281215,,,
2006,2415,0.049287750000000005,0.027825799999999998,,,
2007,2416,0.049178650000000004,0.027681199999999996,,,
2008,2417,0.0491863,0.027560099999999997,,,
2009,2418,0.0490279,0.027380349999999998,,,
2010,2419,0.0492039,0.02733525,,,
2011,2420,0.04882739999999999,0.02701515,,,
2012,2421,0.0490868,0.0269809,,,
2013,2422,0.04820495,0.0263573,,,
2014,2423,0.0483348,0.026215350000000002,,,
2015,2424,0.046275250000000004,0.024947999999999998,,,
2016,2425,0.04546025,0.024365900000000003,,,
2017,2426,0.040770799999999996,0.02195745,,,
2018,2427,0.0367992,0.0201361,,,
2019,2428,0.02826185,0.0161728,,,
2020,2429,0.01642485,0.00287936,,,
2021,2430,0.050880350000000005,0.02926645,,,
2022,2431,0.049534550000000004,0.028291950000000003,,,
2023,2432,0.0487793,0.02774555,,,
2024,2433,0.04847535,0.02742505,,,
2025,2434,0.04846125,0.027347299999999998,,,
2026,2435,0.04856485,0.027278399999999998,,,
2027,2436,0.0486273,0.027242899999999997,,,
2028,2437,0.048900700000000005,0.027255249999999998,,,
2029,2438,0.048896300000000004,0.027170399999999997,,,
2030,2439,0.04933,0.02723615,,,
2031,2440,0.0491702,0.02705365,,,
2032,2441,0.049783100000000004,0.02716105,,,
2033,2442,0.04915305,0.02671455,,,
2034,2443,0.0496166,0.0266789,,,
2035,2444,0.047325900000000004,0.0253762,,,
2036,2445,0.045363099999999996,0.024142049999999998,,,
2037,2446,0.0383749,0.0208482,,,
2038,2447,0.024085000000000002,0.013425050000000001,,,
2039,2448,0.004835985,0.0026554350000000003,,,
2040,2449,0.0515593,0.02954785,,,
2041,2450,0.0487847,0.0278293,,,
2042,2451,0.047891100000000006,0.02717315,,,
2043,2452,0.047634350000000006,0.02696295,,,
2044,2453,0.047767550000000006,0.0269105,,,
2045,2454,0.04794380000000001,0.0269507,,,
2046,2455,0.0482883,0.027010799999999998,,,
2047,2456,0.04850425,0.027066649999999998,,,
2048,2457,0.04896325,0.027165299999999996,,,
2049,2458,0.04918265,0.027223749999999998,,,
2050,2459,0.04984215,0.02739065,,,
2051,2460,0.05000135,0.02743135,,,
2052,2461,0.05085415,0.027631700000000002,,,
2053,2462,0.05036715,0.027339750000000003,,,
2054,2463,0.0504783,0.027002850000000002,,,
2055,2464,0.0467056,0.024856450000000002,,,
2056,2465,0.0401169,0.02081545,,,
2057,2466,0.02786735,0.0131872,,,
2058,2467,0.013117150000000001,0.0022381750000000002,,,
2059,2468,0.051128,0.029123700000000002,,,
2060,2469,0.04832625,0.0274632,,,
2061,2470,0.047281500000000004,0.02683515,,,
2062,2471,0.04717075,0.026661949999999997,,,
2063,2472,0.04722965,0.026643649999999998,,,
2064,2473,0.04758319999999999,0.02671905,,,
2065,2474,0.047869999999999996,0.02681945,,,
2066,2475,0.0482994,0.02691935,,,
2067,2476,0.0486678,0.0270694,,,
2068,2477,0.04919395,0.027196699999999997,,,
2069,2478,0.04966115,0.027425949999999998,,,
2070,2479,0.0503574,0.02760055,,,
2071,2480,0.05078315,0.02784565,,,
2072,2481,0.0514378,0.027868399999999995,,,
2073,2482,0.05069435,0.027423250000000003,,,
2074,2483,0.04969320000000001,0.02605015,,,
2075,2484,0.04299515,0.0211892,,,
2076,2485,0.034594799999999995,0.0141133,,,
2077,2486,0.027008449999999996,0.002487685,,,
2078,2487,0.04961404999999999,0.028044,,,
2079,2488,0.0478919,0.027177899999999998,,,
2080,2489,0.047214950000000006,0.0267431,,,
2081,2490,0.046870449999999994,0.026520750000000003,,,
2082,2491,0.047091850000000005,0.0265433,,,
2083,2492,0.04726155,0.026578249999999998,,,
2084,2493,0.0476221,0.026655850000000002,,,
2085,2494,0.0479843,0.02679655,,,
2086,2495,0.048360200000000006,0.026864700000000002,,,
2087,2496,0.0488701,0.0271076,,,
2088,2497,0.049267450000000004,0.027161,,,
2089,2498,0.0499203,0.0275209,,,
2090,2499,0.05028555,0.02747915,,,
2091,2500,0.050835,0.027786199999999997,,,
2092,2501,0.05085115,0.02722315,,,
2093,2502,0.049849950000000004,0.02630545,,,
2094,2503,0.05008365,0.02405175,,,
2095,2504,0.0431569,0.0150206,,,
2096,2505,0.03960865000000001,0.003937255000000001,,,
2097,2506,0.0489749,0.027641350000000002,,,
2098,2507,0.04803345,0.02717155,,,
2099,2508,0.04716275,0.02671515,,,
2100,2509,0.047097150000000004,0.0266195,,,
2101,2510,0.0469359,0.0264763,,,
2102,2511,0.04714765,0.0264924,,,
2103,2512,0.04736565,0.026543700000000003,,,
2104,2513,0.047618,0.02656295,,,
2105,2514,0.0480581,0.026746599999999995,,,
2106,2515,0.0482433,0.02671065,,,
2107,2516,0.04884915,0.02700975,,,
2108,2517,0.048845849999999996,0.026823599999999996,,,
2109,2518,0.049561100000000004,0.027192349999999997,,,
2110,2519,0.04917895,0.02661465,,,
2111,2520,0.04989605000000001,0.0268375,,,
2112,2521,0.04952445,0.025415049999999998,,,
2113,2522,0.0503732,0.02471505,,,
2114,2523,0.0581927,0.021848100000000002,,,
2115,2524,0.0578231,0.00493457,,,
2116,2525,0.0497992,0.02799275,,,
2117,2526,0.04810195,0.027180550000000005,,,
2118,2527,0.0476728,0.026955999999999997,,,
2119,2528,0.046993900000000005,0.026544949999999998,,,
2120,2529,0.04694105,0.0264483,,,
2121,2530,0.04687935,0.026341700000000003,,,
2122,2531,0.04700575,0.026315099999999998,,,
2123,2532,0.04731634999999999,0.0264101,,,
2124,2533,0.047417749999999995,0.0263523,,,
2125,2534,0.0479527,0.02657805,,,
2126,2535,0.04782485,0.02636195,,,
2127,2536,0.04847715,0.026645600000000002,,,
2128,2537,0.04782825,0.026033149999999998,,,
2129,2538,0.04854625,0.0262472,,,
2130,2539,0.0471891,0.0248132,,,
2131,2540,0.0487265,0.0249361,,,
2132,2541,0.048531050000000006,0.02204195,,,
2133,2542,0.0569103,0.02355135,,,
2134,2543,0.08393015,0.0159194,,,
2135,2544,0.06364795,0.035600650000000005,,,
2136,2545,0.06310955,0.03433535,,,
2137,2546,0.0631966,0.03349675,,,
2138,2547,0.0631958,0.032552,,,
2139,2548,0.06337604999999999,0.03175925,2602.666625,-100.0139923,-12.1875
2140,2549,0.0637124,0.0310184,2602.666625,-95.04197690000001,-36.5625
2141,2550,0.06389,0.03019645,2626.0,-100.0139923,-12.1875
2142,2551,0.06436325000000001,0.029507700000000005,2626.0,-95.04197690000001,-36.5625
2143,2552,0.06428265,0.028461649999999998,2649.333375,-100.0139923,-12.1875
2144,2553,0.06459555,0.027628099999999996,2649.333375,-95.04197690000001,-36.5625
2145,2554,0.063874,0.026101150000000004,1223.5,13.2644758,100.75370025000001
2146,2555,0.06354299999999999,0.024863450000000002,1248.5,13.2644758,100.75370025000001
2147,2556,0.06162324999999999,0.02255495,1273.5,13.2644758,100.75370025000001
2148,2557,0.0598134,0.020572,1298.5,13.2644758,100.75370025000001
2149,2558,0.05584685,0.01720865,1323.5,13.2644758,100.75370025000001
2150,2559,0.0511477,0.014114449999999999,1348.5,13.2644758,100.75370025000001
2151,2560,0.0434051,0.009523265,1373.5,13.2644758,100.75370025000001
2152,2561,0.03296685,0.005124105,1223.5,38.8894758,93.88750075
2153,2562,0.0129215,-0.0015613475,1248.5,38.8894758,93.88750075
2154,2563,0.061316,0.03391670000000001,1273.5,38.8894758,93.88750075
2155,2564,0.061139399999999997,0.032908,1298.5,38.8894758,93.88750075
2156,2565,0.0614216,0.0320164,1323.5,38.8894758,93.88750075
2157,2566,0.0617669,0.031320549999999996,1348.5,38.8894758,93.88750075
2158,2567,0.0623151,0.030656999999999997,1373.5,38.8894758,93.88750075
2159,2568,0.0627766,0.030030999999999995,1223.5,61.86422350000001,80.623024
2160,2569,0.0635667,0.029488,1248.5,61.86422350000001,80.623024
2161,2570,0.06397705,0.02876555,1273.5,61.86422350000001,80.623024
2162,2571,0.06487784999999999,0.02820065,1298.5,61.86422350000001,80.623024
2163,2572,0.06501225,0.0271887,1323.5,61.86422350000001,80.623024
2164,2573,0.06577095,0.026429150000000002,1348.5,61.86422350000001,80.623024
2165,2574,0.06527675,0.024880399999999997,1373.5,61.86422350000001,80.623024
2166,2575,0.06535175,0.02368215,1223.5,80.623024,61.8642235
2167,2576,0.06362815000000001,0.0213077,1248.5,80.623024,61.8642235
2168,2577,0.0618715,0.019330399999999998,1273.5,80.623024,61.8642235
2169,2578,0.057685,0.01593035,1298.5,80.623024,61.8642235
2170,2579,0.05182345,0.01274065,1323.5,80.623024,61.8642235
2171,2580,0.041095,0.008187670000000001,1348.5,80.623024,61.8642235
2172,2581,0.0246715,-0.000823195,1373.5,80.623024,61.8642235
2173,2582,0.0597387,0.03285395000000001,1223.5,93.88750075,38.8894758
2174,2583,0.059766650000000004,0.031711249999999996,1248.5,93.88750075,38.8894758
2175,2584,0.0597155,0.03073165,1273.5,93.88750075,38.8894758
2176,2585,0.060396649999999996,0.03007965,1298.5,93.88750075,38.8894758
2177,2586,0.06102695,0.029571550000000002,1323.5,93.88750075,38.8894758
2178,2587,0.062066750000000004,0.02916345,1348.5,93.88750075,38.8894758
2179,2588,0.06285765,0.028728,1373.5,93.88750075,38.8894758
2180,2589,0.06415779999999999,0.0284016,1223.5,100.75370025000001,13.2644758
2181,2590,0.06490694999999999,0.02784235,1248.5,100.75370025000001,13.2644758
2182,2591,0.06635815,0.027472499999999997,1273.5,100.75370025000001,13.2644758
2183,2592,0.06683534999999999,0.026595849999999997,1298.5,100.75370025000001,13.2644758
2184,2593,0.06817375,0.026026149999999998,1323.5,100.75370025000001,13.2644758
2185,2594,0.06792995,0.024528300000000003,1348.5,100.75370025000001,13.2644758
2186,2595,0.0683394,0.023445349999999997,1373.5,100.75370025000001,13.2644758
2187,2596,0.06640835,0.020913,1373.5,100.0139923,-12.1875
2188,2597,0.06383359999999999,0.0186741,1373.5,95.04197690000001,-36.5625
2189,2598,0.0578409,0.014653300000000001,1348.5,100.0139923,-12.1875
2190,2599,0.04763425,0.009055195,1348.5,95.04197690000001,-36.5625
2191,2600,0.03720614999999999,-0.000152701,1323.5,100.0139923,-12.1875
2192,2601,0.06040015,0.0328054,1323.5,95.04197690000001,-36.5625
2193,2602,0.05839305,0.030633300000000002,1298.5,100.0139923,-12.1875
2194,2603,0.058562100000000006,0.029662549999999996,1298.5,95.04197690000001,-36.5625
2195,2604,0.058925099999999994,0.02898825,1273.5,100.0139923,-12.1875
2196,2605,0.06001555,0.0286084,1273.5,95.04197690000001,-36.5625
2197,2606,0.06100465,0.0283447,1248.5,100.0139923,-12.1875
2198,2607,0.06253325000000001,0.028189150000000003,1248.5,95.04197690000001,-36.5625
2199,2608,0.06369245,0.0279737,1223.5,100.0139923,-12.1875
2200,2609,0.06551465000000001,0.027881,1223.5,95.04197690000001,-36.5625
2201,2610,0.0666371,0.0275401,2602.666625,-90.120285,-60.690788250000004
2202,2611,0.06866425,0.02741365,2602.666625,-85.248918525,-84.5723686
2203,2612,0.06943840000000001,0.02670745,2602.666625,-80.377553925,-108.45394885000002
2204,2613,0.0713013,0.0263402,2602.666625,-75.50618739999999,-132.335529
2205,2614,0.07097124999999999,0.0247357,2602.666625,-70.634819,-156.2171095
2206,2615,0.0712016,0.023479200000000002,2602.666625,-65.7634525,-180.098686
2207,2616,0.0681262,0.020099,2602.666625,-60.892086,-203.9802625
2208,2617,0.0631841,0.0162494,2602.666625,-56.0207195,-227.86183949999997
2209,2618,0.05559215,0.00929024,2602.666625,-51.14935299999999,-251.74341599999997
2210,2619,0.047772350000000005,0.0001082285,2602.666625,-46.277984599999996,-275.625
2211,2620,0.05968425,0.031793249999999995,2602.666625,-41.406618099999996,-299.5065765
2212,2621,0.0578588,0.02987335,2602.666625,-36.535251599999995,-323.388153
2213,2622,0.05720725,0.028626200000000004,2602.666625,-31.663883674999997,-347.269745
2214,2623,0.0578558,0.02803995,2602.666625,-26.792517174999997,-371.1513215
2215,2624,0.058728749999999996,0.027756299999999998,2602.666625,-21.921150674999996,-395.032898
2216,2625,0.06028285,0.02766775,2602.666625,-17.049784199999998,-418.9144745
2217,2626,0.061647099999999996,0.02765425,2602.666625,-12.178417465,-442.796051
2218,2627,0.06361285,0.02772825,2602.666625,-7.307050824999999,-466.67762749999997
2219,2628,0.06512725,0.027750900000000002,2602.666625,-2.435684085,-490.559204
2220,2629,0.067413,0.02788615,2626.0,-90.120285,-60.690788250000004
2221,2630,0.068853,0.027785649999999995,2626.0,-85.2489166,-84.5723686
2222,2631,0.0713884,0.0278831,2626.0,-80.377552,-108.45394885000002
2223,2632,0.0722664,0.027266949999999998,2626.0,-75.50618739999999,-132.335529
2224,2633,0.07451474999999999,0.0269271,2626.0,-70.634819,-156.2171095
2225,2634,0.07360080000000001,0.024693649999999998,2626.0,-65.7634525,-180.098686
2226,2635,0.07311954999999999,0.02248555,2626.0,-60.892086,-203.9802625
2227,2636,0.06882415,0.016870299999999998,2626.0,-56.0207195,-227.86183949999997
2228,2637,0.063313,0.01028645,2626.0,-51.14935299999999,-251.74341599999997
2229,2638,0.05940855,0.000627301,2626.0,-46.277984599999996,-275.625
2230,2639,0.05867985,0.03058275,2626.0,-41.406618099999996,-299.5065765
2231,2640,0.056715549999999997,0.0287564,2626.0,-36.535251599999995,-323.388153
2232,2641,0.056161499999999996,0.027656800000000002,2626.0,-31.6638832,-347.269745
2233,2642,0.056526450000000006,0.027175150000000002,2626.0,-26.7925167,-371.1513215
2234,2643,0.05781765,0.027022499999999998,2626.0,-21.9211502,-395.032898
2235,2644,0.05915089999999999,0.027058950000000002,2626.0,-17.049784199999998,-418.9144745
2236,2645,0.061085600000000004,0.0271999,2626.0,-12.1784177,-442.796051
2237,2646,0.0627772,0.0274121,2626.0,-7.30705118,-466.67762749999997
2238,2647,0.06506265,0.027665299999999997,2626.0,-2.43568468,-490.559204
2239,2648,0.0668702,0.027927099999999996,2649.333375,-90.120285,-60.690788250000004
2240,2649,0.06950125,0.02823905,2649.333375,-85.248918525,-84.5723686
2241,2650,0.07116159999999999,0.02835705,2649.333375,-80.377553925,-108.45394885000002
2242,2651,0.07413165,0.0285621,2649.333375,-75.50618739999999,-132.335529
2243,2652,0.07495335,0.0278457,2649.333375,-70.634819,-156.2171095
2244,2653,0.07777465,0.027210949999999998,2649.333375,-65.7634525,-180.098686
2245,2654,0.07623089999999999,0.023461999999999997,2649.333375,-60.892086,-203.9802625
2246,2655,0.07577895,0.01949455,2649.333375,-56.0207195,-227.86183949999997
2247,2656,0.07254769999999999,0.01094405,2649.333375,-51.14935299999999,-251.74341599999997
2248,2657,0.0693558,0.001639845,2649.333375,-46.277984599999996,-275.625
2249,2658,0.057355500000000004,0.029113,2649.333375,-41.406618099999996,-299.5065765
2250,2659,0.055161749999999996,0.0273603,2649.333375,-36.535251599999995,-323.388153
2251,2660,0.054816050000000005,0.02671615,2649.333375,-31.663883674999997,-347.269745
2252,2661,0.0555513,0.026404949999999996,2649.333375,-26.792517175,-371.1513215
2253,2662,0.056615650000000003,0.026379149999999997,2649.333375,-21.921150675,-395.032898
2254,2663,0.058357149999999997,0.0265062,2649.333375,-17.049784199999998,-418.9144745
2255,2664,0.06003105,0.026760350000000002,2649.333375,-12.178417465,-442.796051
2256,2665,0.06217835000000001,0.027035149999999997,2649.333375,-7.307050825000001,-466.67762749999997
2257,2666,0.06411865,0.027442150000000002,2649.333375,-2.435684085,-490.559204
2258,2667,0.066565,0.0277972,1373.5,90.120285,-60.690788250000004
2259,2668,0.06860069999999999,0.02828175,1373.5,85.248918525,-84.5723686
2260,2669,0.07144275,0.02865935,1373.5,80.377553925,-108.45394885000002
2261,2670,0.0733159,0.02896045,1373.5,75.50618739999999,-132.335529
2262,2671,0.0768224,0.0290935,1373.5,70.634819,-156.2171095
2263,2672,0.07781664999999999,0.028142849999999997,1373.5,65.7634525,-180.098686
2264,2673,0.08254725,0.0270448,1373.5,60.892086,-203.9802625
2265,2674,0.08138865,0.0207374,1373.5,56.0207195,-227.86183949999997
2266,2675,0.08221505,0.0142555,1373.5,51.14935299999999,-251.74341599999997
2267,2676,0.0820951,0.00250737,1373.5,46.277984599999996,-275.625
2268,2677,0.054699550000000006,0.0268564,1373.5,41.406618099999996,-299.5065765
2269,2678,0.05356635,0.0262439,1373.5,36.535251599999995,-323.388153
2270,2679,0.05372615,0.02584315,1373.5,31.663883674999997,-347.269745
2271,2680,0.054367,0.02573805,1373.5,26.792517174999997,-371.1513215
2272,2681,0.055785150000000006,0.0258112,1373.5,21.921150674999996,-395.032898
2273,2682,0.0572648,0.0260038,1373.5,17.049784199999998,-418.9144745
2274,2683,0.05918815,0.0262424,1373.5,12.178417465,-442.796051
2275,2684,0.0610855,0.0266428,1373.5,7.307050824999999,-466.67762749999997
2276,2685,0.0632684,0.0269579,1373.5,2.435684085,-490.559204
2277,2686,0.06539405,0.027528450000000003,1348.5,90.120285,-60.690788250000004
2278,2687,0.06783445,0.0278763,1348.5,85.2489166,-84.5723686
2279,2688,0.070108,0.028560199999999997,1348.5,80.377552,-108.45394885000002
2280,2689,0.07306480000000001,0.0288377,1348.5,75.50618739999999,-132.335529
2281,2690,0.07542599999999999,0.02937045,1348.5,70.634819,-156.2171095
2282,2691,0.07991319999999999,0.029275550000000004,1348.5,65.7634525,-180.098686
2283,2692,0.08210675,0.02843015,1348.5,60.892086,-203.9802625
2284,2693,0.09199194999999999,0.027093850000000003,1348.5,56.0207195,-227.86183949999997
2285,2694,0.09280035,0.016120250000000003,1348.5,51.14935299999999,-251.74341599999997
2286,2695,0.09418925,0.005291344999999999,1348.5,46.277984599999996,-275.625
2287,2696,0.05259245,0.025563250000000003,1348.5,41.406618099999996,-299.5065765
2288,2697,0.0524668,0.02534055,1348.5,36.535251599999995,-323.388153
2289,2698,0.052572049999999995,0.025166550000000003,1348.5,31.6638832,-347.269745
2290,2699,0.05362125,0.02520625,1348.5,26.7925167,-371.1513215
2291,2700,0.0547556,0.0252752,1348.5,21.9211502,-395.032898
2292,2701,0.056377449999999996,0.025445049999999997,1348.5,17.049784199999998,-418.9144745
2293,2702,0.058091649999999995,0.025746650000000003,1348.5,12.1784177,-442.796051
2294,2703,0.06000464999999999,0.02599485,1348.5,7.30705118,-466.67762749999997
2295,2704,0.0620599,0.026503199999999998,1348.5,2.43568468,-490.559204
2296,2705,0.06413415,0.0267724,1323.5,90.120285,-60.690788250000004
2297,2706,0.06644485,0.02746965,1323.5,85.2489166,-84.5723686
2298,2707,0.06873445,0.02766955,1323.5,80.377552,-108.45394885000002
2299,2708,0.07141175,0.028538,1323.5,75.50618739999999,-132.335529
2300,2709,0.07442409999999999,0.0285016,1323.5,70.634819,-156.2171095
2301,2710,0.07800610000000001,0.029509800000000003,1323.5,65.7634525,-180.098686
2302,2711,0.08400640000000001,0.0289775,1323.5,60.892086,-203.9802625
2303,2712,0.08971080000000001,0.029640249999999996,1323.5,56.0207195,-227.86183949999997
2304,2713,0.11114249999999999,0.0281673,1323.5,51.14935299999999,-251.74341599999997
2305,2714,0.1142675,0.0071673299999999995,1323.5,46.277984599999996,-275.625
2306,2715,0.052157999999999996,0.02509335,1323.5,41.406618099999996,-299.5065765
2307,2716,0.05144045,0.0247143,1323.5,36.535251599999995,-323.388153
2308,2717,0.05203864999999999,0.02473715,1323.5,31.6638832,-347.269745
2309,2718,0.0526614,0.024612299999999997,1323.5,26.7925167,-371.1513215
2310,2719,0.053881849999999995,0.024684599999999998,1323.5,21.9211502,-395.032898
2311,2720,0.055282200000000004,0.024829499999999997,1323.5,17.049784199999998,-418.9144745
2312,2721,0.056906200000000004,0.02500235,1323.5,12.1784177,-442.796051
2313,2722,0.0587962,0.02539115,1323.5,7.30705118,-466.67762749999997
2314,2723,0.0606091,0.02560595,1323.5,2.43568468,-490.559204
2315,2724,0.06283455,0.0261996,1298.5,90.120285,-60.690788250000004
2316,2725,0.06472030000000001,0.02634585,1298.5,85.2489166,-84.5723686
2317,2726,0.06731899999999999,0.02711885,1298.5,80.377552,-108.45394885000002
2318,2727,0.06936485,0.0270124,1298.5,75.50618739999999,-132.335529
2319,2728,0.0728096,0.02802805,1298.5,70.634819,-156.2171095
2320,2729,0.07573840000000001,0.0273748,1298.5,65.7634525,-180.098686
2321,2730,0.08180965,0.0291608,1298.5,60.892086,-203.9802625
2322,2731,0.088947,0.027419500000000003,1298.5,56.0207195,-227.86183949999997
2323,2732,0.10428799999999999,0.03296665,1298.5,51.14935299999999,-251.74341599999997
2324,2733,0.14725200000000002,0.025724900000000002,1298.5,46.277984599999996,-275.625
2325,2734,0.07792969999999999,0.04089495,1298.5,41.406618099999996,-299.5065765
2326,2735,0.0786311,0.0390711,1298.5,36.535251599999995,-323.388153
2327,2736,0.08043985000000001,0.0380327,1298.5,31.6638832,-347.269745
2328,2737,0.08161840000000001,0.036453400000000004,1298.5,26.7925167,-371.1513215
2329,2738,0.0835742,0.035412,1298.5,21.9211502,-395.032898
2330,2739,0.0849399,0.033870899999999995,1298.5,17.049784199999998,-418.9144745
2331,2740,0.08700605,0.03280815,1298.5,12.1784177,-442.796051
2332,2741,0.08827335,0.031061150000000003,1298.5,7.30705118,-466.67762749999997
2333,2742,0.09023980000000001,0.029816050000000004,1298.5,2.43568468,-490.559204
2334,2743,0.0910755,0.0275645,1273.5,90.120285,-60.690788250000004
2335,2744,0.09259400000000001,0.0258957,1273.5,85.2489166,-84.5723686
2336,2745,0.09259835,0.0227972,1273.5,80.377552,-108.45394885000002
2337,2746,0.093149,0.020395449999999996,1273.5,75.50618739999999,-132.335529
2338,2747,0.09183915000000001,0.0160864,1273.5,70.634819,-156.2171095
2339,2748,0.0907509,0.012610199999999998,1273.5,65.7634525,-180.098686
2340,2749,0.0875149,0.0066593550000000005,1273.5,60.892086,-203.9802625
2341,2750,0.08422315,0.001834905,1273.5,56.0207195,-227.86183949999997
2342,2751,0.0783005,-0.006921465,1273.5,51.14935299999999,-251.74341599999997
2343,2752,0.07490640000000001,-0.0128449,1273.5,46.277984599999996,-275.625
2344,2753,0.07485665,0.03824245,1273.5,41.406618099999996,-299.5065765
2345,2754,0.0764964,0.0370669,1273.5,36.535251599999995,-323.388153
2346,2755,0.0782794,0.03565855,1273.5,31.6638832,-347.269745
2347,2756,0.08047125,0.03472309999999999,1273.5,26.7925167,-371.1513215
2348,2757,0.08232395,0.033429400000000005,1273.5,21.9211502,-395.032898
2349,2758,0.08477615,0.032558050000000005,1273.5,17.049784199999998,-418.9144745
2350,2759,0.08663575000000001,0.03119605,1273.5,12.1784177,-442.796051
2351,2760,0.0892491,0.030262449999999996,1273.5,7.30705118,-466.67762749999997
2352,2761,0.09094155000000001,0.0285942,1273.5,2.43568468,-490.559204
2353,2762,0.09352545000000001,0.027422000000000002,1248.5,90.120285,-60.690788250000004
2354,2763,0.09478820000000002,0.02516255,1248.5,85.2489166,-84.5723686
2355,2764,0.09698155,0.0235171,1248.5,80.377552,-108.45394885000002
2356,2765,0.0974349,0.0203488,1248.5,75.50618739999999,-132.335529
2357,2766,0.098622,0.01793415,1248.5,70.634819,-156.2171095
2358,2767,0.09764814999999999,0.013590249999999998,1248.5,65.7634525,-180.098686
2359,2768,0.0970906,0.01010844,1248.5,60.892086,-203.9802625
2360,2769,0.09333295,0.00453424,1248.5,56.0207195,-227.86183949999997
2361,2770,0.09113485,-0.0003496245,1248.5,51.14935299999999,-251.74341599999997
2362,2771,0.07868395,-0.00488878,1248.5,46.277984599999996,-275.625
2363,2772,0.07276360000000001,0.03656089999999999,1248.5,41.406618099999996,-299.5065765
2364,2773,0.0747729,0.03506025,1248.5,36.535251599999995,-323.388153
2365,2774,0.07663515000000001,0.0338316,1248.5,31.6638832,-347.269745
2366,2775,0.07897199999999999,0.032725050000000006,1248.5,26.7925167,-371.1513215
2367,2776,0.0816095,0.031950950000000006,1248.5,21.9211502,-395.032898
2368,2777,0.08401349999999999,0.03095545,1248.5,17.049784199999998,-418.9144745
2369,2778,0.08704604999999999,0.0302961,1248.5,12.1784177,-442.796051
2370,2779,0.08942449999999999,0.029180300000000003,1248.5,7.30705118,-466.67762749999997
2371,2780,0.09271339999999999,0.0284521,1248.5,2.43568468,-490.559204
2372,2781,0.094909,0.026975399999999997,1223.5,90.120285,-60.690788250000004
2373,2782,0.09824745,0.02599505,1223.5,85.248918525,-84.5723686
2374,2783,0.09998265,0.0238619,1223.5,80.377553925,-108.45394885000002
2375,2784,0.102893,0.0223706,1223.5,75.50618739999999,-132.335529
2376,2785,0.10366449999999999,0.01926925,1223.5,70.634819,-156.2171095
2377,2786,0.10519749999999999,0.0168861,1223.5,65.7634525,-180.098686
2378,2787,0.1039495,0.01276775,1223.5,60.892086,-203.9802625
2379,2788,0.10270399999999999,0.008949450000000001,1223.5,56.0207195,-227.86183949999997
2380,2789,0.0968005,0.00475767,1223.5,51.14935299999999,-251.74341599999997
2381,2790,0.08701485,-0.00296552,1223.5,46.277984599999996,-275.625
2382,2791,0.07309625,0.0357808,1223.5,41.406618099999996,-299.5065765
2383,2792,0.0731224,0.033338900000000005,1223.5,36.535251599999995,-323.388153
2384,2793,0.0753849,0.03211045,1223.5,31.663883674999997,-347.269745
2385,2794,0.07773855,0.031121950000000002,1223.5,26.792517175,-371.1513215
2386,2795,0.08052100000000001,0.0303724,1223.5,21.921150675,-395.032898
2387,2796,0.0837045,0.029855850000000003,1223.5,17.049784199999998,-418.9144745
2388,2797,0.08661084999999999,0.029202600000000002,1223.5,12.178417465,-442.796051
2389,2798,0.09028219999999999,0.02881215,1223.5,7.307050825000001,-466.67762749999997
2390,2799,0.09316505,0.028012049999999997,1223.5,2.4356840823667216,-490.559204
2391,2800,0.09717735,0.02756025,2578.447875,90.120285,-60.690788250000004
2392,2801,0.09983985000000001,0.02635945,2578.447875,85.248918525,-84.5723686
2393,2802,0.103934,0.025642850000000002,2578.447875,80.377553925,-108.45394885000002
2394,2803,0.10599,0.0236677,2578.447875,75.50618739999999,-132.335529
2395,2804,0.10937049999999998,0.02229385,2578.447875,70.634819,-156.2171095
2396,2805,0.11003950000000001,0.01915825,2578.447875,65.7634525,-180.098686
2397,2806,0.1108565,0.0163875,2578.447875,60.892086,-203.9802625
2398,2807,0.1085425,0.012115649999999999,2578.447875,56.0207195,-227.86183949999997
2399,2808,0.103107,0.00644749,2578.447875,51.14935299999999,-251.74341599999997
2400,2809,0.09758875,-0.0018879399999999998,2578.447875,46.277984599999996,-275.625
2401,2810,0.07194175,0.03396895,2578.447875,41.406618099999996,-299.5065765
2402,2811,0.07259995,0.0320346,2578.447875,36.535251599999995,-323.388153
2403,2812,0.0738877,0.03039295,2578.447875,31.663883674999997,-347.269745
2404,2813,0.07658355,0.0296463,2578.447875,26.792517174999997,-371.1513215
2405,2814,0.07954835000000002,0.0290473,2578.447875,21.921150674999996,-395.032898
2406,2815,0.08276765,0.02871185,2578.447875,17.049784199999998,-418.9144745
2407,2816,0.08653759999999999,0.02851235,2578.447875,12.178417465,-442.796051
2408,2817,0.08990195,0.0282388,2578.447875,7.307050824999999,-466.67762749999997
2409,2818,0.0941996,0.0281528,2578.447875,2.435684085,-490.559204
2410,2819,0.09752065,0.027723150000000002,2553.34375,90.120285,-60.690788250000004
2411,2820,0.102228,0.027582549999999997,2553.34375,85.2489166,-84.5723686
2412,2821,0.10523099999999999,0.026679349999999998,2553.34375,80.377552,-108.45394885000002
2413,2822,0.109994,0.026196050000000005,2553.34375,75.50618739999999,-132.335529
2414,2823,0.11210400000000001,0.02419615,2553.34375,70.634819,-156.2171095
2415,2824,0.1154685,0.0226164,2553.34375,65.7634525,-180.098686
2416,2825,0.11560200000000001,0.018764799999999998,2553.34375,60.892086,-203.9802625
2417,2826,0.11431650000000002,0.0146033,2553.34375,56.0207195,-227.86183949999997
2418,2827,0.11139550000000001,0.00770181,2553.34375,51.14935299999999,-251.74341599999997
2419,2828,0.10688249999999999,-0.0006439415,2553.34375,46.277984599999996,-275.625
2420,2829,0.07128019999999999,0.032347600000000004,2553.34375,41.406618099999996,-299.5065765
2421,2830,0.07102295,0.030031449999999998,2553.34375,36.535251599999995,-323.388153
2422,2831,0.0728561,0.02898945,2553.34375,31.6638832,-347.269745
2423,2832,0.07512885,0.0280682,2553.34375,26.7925167,-371.1513215
2424,2833,0.07831584999999999,0.027871,2553.34375,21.9211502,-395.032898
2425,2834,0.081912,0.0276978,2553.34375,17.049784199999998,-418.9144745
2426,2835,0.0855435,0.02777835,2553.34375,12.1784177,-442.796051
2427,2836,0.08984105,0.02789435,2553.34375,7.30705118,-466.67762749999997
2428,2837,0.09359405,0.0280228,2553.34375,2.43568468,-490.559204
2429,2838,0.09844064999999999,0.028239600000000004,2528.239625,90.120285,-60.690788250000004
2430,2839,0.1021035,0.028209249999999998,2528.239625,85.2489166,-84.5723686
2431,2840,0.10745650000000001,0.02835475,2528.239625,80.377552,-108.45394885000002
2432,2841,0.11066000000000001,0.02767365,2528.239625,75.50618739999999,-132.335529
2433,2842,0.1160905,0.0272668,2528.239625,70.634819,-156.2171095
2434,2843,0.1180545,0.02468225,2528.239625,65.7634525,-180.098686
2435,2844,0.121112,0.0222768,2528.239625,60.892086,-203.9802625
2436,2845,0.12085950000000001,0.016211200000000002,2528.239625,56.0207195,-227.86183949999997
2437,2846,0.1189135,0.009771160000000001,2528.239625,51.14935299999999,-251.74341599999997
2438,2847,0.1175905,0.00042561949999999997,2528.239625,46.277984599999996,-275.625
2439,2848,0.06925355,0.029802350000000002,2528.239625,41.406618099999996,-299.5065765
2440,2849,0.0698424,0.028366549999999997,2528.239625,36.535251599999995,-323.388153
2441,2850,0.07101104999999999,0.027034700000000002,2528.239625,31.6638832,-347.269745
2442,2851,0.0737265,0.026829400000000003,2528.239625,26.7925167,-371.1513215
2443,2852,0.07689404999999999,0.026556700000000003,2528.239625,21.9211502,-395.032898
2444,2853,0.0805406,0.0268286,2528.239625,17.049784199999998,-418.9144745
2445,2854,0.08464015,0.027008400000000002,2528.239625,12.1784177,-442.796051
2446,2855,0.08861795,0.02747845,2528.239625,7.30705118,-466.67762749999997
2447,2856,0.0933088,0.02786305,2528.239625,2.43568468,-490.559204
2448,2857,0.09737005000000001,0.0284062,2503.135375,90.120285,-60.690788250000004
2449,2858,0.1026625,0.0288819,2503.135375,85.2489166,-84.5723686
2450,2859,0.10660249999999999,0.0292576,2503.135375,80.377552,-108.45394885000002
2451,2860,0.1126485,0.0296062,2503.135375,75.50618739999999,-132.335529
2452,2861,0.1160375,0.02898705,2503.135375,70.634819,-156.2171095
2453,2862,0.122667,0.0284501,2503.135375,65.7634525,-180.098686
2454,2863,0.12464,0.02426385,2503.135375,60.892086,-203.9802625
2455,2864,0.128137,0.02031265,2503.135375,56.0207195,-227.86183949999997
2456,2865,0.12859500000000001,0.01118885,2503.135375,51.14935299999999,-251.74341599999997
2457,2866,0.12692799999999999,0.002116995,2503.135375,46.277984599999996,-275.625
2458,2867,0.06774414999999999,0.0276542,2503.135375,41.406618099999996,-299.5065765
2459,2868,0.0674119,0.025818550000000003,2503.135375,36.535251599999995,-323.388153
2460,2869,0.06933345,0.02560365,2503.135375,31.6638832,-347.269745
2461,2870,0.07191035,0.0252224,2503.135375,26.7925167,-371.1513215
2462,2871,0.07530685000000001,0.025571249999999997,2503.135375,21.9211502,-395.032898
2463,2872,0.07907900000000001,0.0257313,2503.135375,17.049784199999998,-418.9144745
2464,2873,0.08308505,0.0263638,2503.135375,12.1784177,-442.796051
2465,2874,0.0874807,0.026783500000000002,2503.135375,7.30705118,-466.67762749999997
2466,2875,0.09172135000000001,0.027617250000000003,2503.135375,2.43568468,-490.559204
2467,2876,0.09663915000000001,0.02819555,2478.03125,90.120285,-60.690788250000004
2468,2877,0.100966,0.02916555,2478.03125,85.2489166,-84.5723686
2469,2878,0.106627,0.029815849999999998,2478.03125,80.377552,-108.45394885000002
2470,2879,0.1109175,0.0306269,2478.03125,75.50618739999999,-132.335529
2471,2880,0.117973,0.03107985,2478.03125,70.634819,-156.2171095
2472,2881,0.1218645,0.030461000000000002,2478.03125,65.7634525,-180.098686
2473,2882,0.1315145,0.0297558,2478.03125,60.892086,-203.9802625
2474,2883,0.1342315,0.02259705,2478.03125,56.0207195,-227.86183949999997
2475,2884,0.138432,0.0160677,2478.03125,51.14935299999999,-251.74341599999997
2476,2885,0.1397805,0.0036526049999999997,2478.03125,46.277984599999996,-275.625
2477,2886,0.06446489999999999,0.02420645,2478.03125,41.406618099999996,-299.5065765
2478,2887,0.06523465,0.02410625,2478.03125,36.535251599999995,-323.388153
2479,2888,0.0672172,0.0237319,2478.03125,31.6638832,-347.269745
2480,2889,0.07015525,0.02411695,2478.03125,26.7925167,-371.1513215
2481,2890,0.0735369,0.024249149999999997,2478.03125,21.9211502,-395.032898
2482,2891,0.07739,0.02491825,2478.03125,17.049784199999998,-418.9144745
2483,2892,0.08143879999999999,0.025300450000000002,2478.03125,12.1784177,-442.796051
2484,2893,0.0856865,0.0262197,2478.03125,7.30705118,-466.67762749999997
2485,2894,0.0901653,0.026772349999999997,2478.03125,2.43568468,-490.559204
2486,2895,0.0946161,0.027952650000000002,2452.927125,90.120285,-60.690788250000004
2487,2896,0.09959699999999999,0.028626399999999996,2452.927125,85.2489166,-84.5723686
2488,2897,0.104253,0.03005045,2452.927125,80.377552,-108.45394885000002
2489,2898,0.11025650000000001,0.030753750000000003,2452.927125,75.50618739999999,-132.335529
2490,2899,0.11525350000000001,0.0321675,2452.927125,70.634819,-156.2171095
2491,2900,0.12396800000000001,0.032652650000000005,2452.927125,65.7634525,-180.098686
2492,2901,0.129311,0.032583749999999995,2452.927125,60.892086,-203.9802625
2493,2902,0.1459355,0.03201295,2452.927125,56.0207195,-227.86183949999997
2494,2903,0.1501505,0.019004,2452.927125,51.14935299999999,-251.74341599999997
2495,2904,0.1520045,0.007564345,2452.927125,46.277984599999996,-275.625
2496,2905,0.06144705,0.0222111,2452.927125,41.406618099999996,-299.5065765
2497,2906,0.063022,0.02214455,2452.927125,36.535251599999995,-323.388153
2498,2907,0.06532089999999999,0.02254,2452.927125,31.6638832,-347.269745
2499,2908,0.06828915,0.0226906,2452.927125,26.7925167,-371.1513215
2500,2909,0.07183285,0.0233102,2452.927125,21.9211502,-395.032898
2501,2910,0.0755068,0.02362535,2452.927125,17.049784199999998,-418.9144745
2502,2911,0.07962074999999999,0.024501750000000003,2452.927125,12.1784177,-442.796051
2503,2912,0.08369535,0.02497435,2452.927125,7.30705118,-466.67762749999997
2504,2913,0.08810825,0.02614145,2452.927125,2.43568468,-490.559204
2505,2914,0.0924925,0.02673425,2427.822875,90.120285,-60.690788250000004
2506,2915,0.09718194999999999,0.028243950000000004,2427.822875,85.2489166,-84.5723686
2507,2916,0.102075,0.0288878,2427.822875,80.377552,-108.45394885000002
2508,2917,0.107304,0.03081825,2427.822875,75.50618739999999,-132.335529
2509,2918,0.11358499999999999,0.0313937,2427.822875,70.634819,-156.2171095
2510,2919,0.1201145,0.033851650000000004,2427.822875,65.7634525,-180.098686
2511,2920,0.130988,0.034175250000000004,2427.822875,60.892086,-203.9802625
2512,2921,0.14012249999999998,0.03669375,2427.822875,56.0207195,-227.86183949999997
2513,2922,0.1716695,0.0363617,2427.822875,51.14935299999999,-251.74341599999997
2514,2923,0.1750995,0.010572229999999998,2427.822875,46.277984599999996,-275.625
2515,2924,0.05971945000000001,0.020723,2427.822875,41.406618099999996,-299.5065765
2516,2925,0.06114794999999999,0.0209691,2427.822875,36.535251599999995,-323.388153
2517,2926,0.06358125,0.02116625,2427.822875,31.6638832,-347.269745
2518,2927,0.06665974999999999,0.0216415,2427.822875,26.7925167,-371.1513215
2519,2928,0.06988525,0.02186125,2427.822875,21.9211502,-395.032898
2520,2929,0.07373445,0.0226111,2427.822875,17.049784199999998,-418.9144745
2521,2930,0.0774289,0.022980450000000003,2427.822875,12.1784177,-442.796051
2522,2931,0.0816959,0.024032200000000004,2427.822875,7.30705118,-466.67762749999997
2523,2932,0.08564735,0.0245336,2427.822875,2.43568468,-490.559204
2524,2933,0.09023105000000001,0.025919949999999997,2402.71875,90.120285,-60.690788250000004
2525,2934,0.09440105,0.026471400000000003,2402.71875,85.2489166,-84.5723686
2526,2935,0.0994755,0.028269049999999997,2402.71875,80.377552,-108.45394885000002
2527,2936,0.104133,0.0287262,2402.71875,75.50618739999999,-132.335529
2528,2937,0.110399,0.0311793,2402.71875,70.634819,-156.2171095
2529,2938,0.116609,0.03130525,2402.71875,65.7634525,-180.098686
2530,2939,0.1262045,0.035353949999999995,2402.71875,60.892086,-203.9802625
2531,2940,0.13810050000000001,0.03459785,2402.71875,56.0207195,-227.86183949999997
2532,2941,0.1587615,0.04465735,2402.71875,51.14935299999999,-251.74341599999997
2533,2942,0.216493,0.0372687,2402.71875,46.277984599999996,-275.625
2534,2943,0.09417310000000001,0.045616050000000005,2402.71875,41.406618099999996,-299.5065765
2535,2944,0.09662209999999999,0.043307750000000006,2402.71875,36.535251599999995,-323.388153
2536,2945,0.1003196,0.04198015,2402.71875,31.6638832,-347.269745
2537,2946,0.103278,0.03992,2402.71875,26.7925167,-371.1513215
2538,2947,0.10718149999999999,0.038583400000000004,2402.71875,21.9211502,-395.032898
2539,2948,0.1103335,0.036506199999999996,2402.71875,17.049784199999998,-418.9144745
2540,2949,0.1143545,0.03510825000000001,2402.71875,12.1784177,-442.796051
2541,2950,0.1173855,0.032706200000000005,2402.71875,7.30705118,-466.67762749999997
2542,2951,0.121298,0.03105235,2402.71875,2.43568468,-490.559204
2543,2952,0.1238755,0.0279494,2377.614625,90.120285,-60.690788250000004
2544,2953,0.12734600000000001,0.025761,2377.614625,85.2489166,-84.5723686
2545,2954,0.1291145,0.02151655,2377.614625,80.377552,-108.45394885000002
2546,2955,0.1316995,0.018445700000000002,2377.614625,75.50618739999999,-132.335529
2547,2956,0.1323115,0.01255405,2377.614625,70.634819,-156.2171095
2548,2957,0.1336115,0.008234769999999999,2377.614625,65.7634525,-180.098686
2549,2958,0.1328515,-5.64128e-05,2377.614625,60.892086,-203.9802625
2550,2959,0.1333495,-0.005833015,2377.614625,56.0207195,-227.86183949999997
2551,2960,0.13203700000000002,-0.01899315,2377.614625,51.14935299999999,-251.74341599999997
2552,2961,0.14305,-0.024573650000000002,2377.614625,46.277984599999996,-275.625
2553,2962,0.0907271,0.041994500000000004,2377.614625,41.406618099999996,-299.5065765
2554,2963,0.0943721,0.040559399999999995,2377.614625,36.535251599999995,-323.388153
2555,2964,0.09810284999999999,0.03872885,2377.614625,31.6638832,-347.269745
2556,2965,0.102343,0.0375392,2377.614625,26.7925167,-371.1513215
2557,2966,0.10610900000000001,0.0357977,2377.614625,21.9211502,-395.032898
2558,2967,0.11064700000000001,0.034648700000000004,2377.614625,17.049784199999998,-418.9144745
2559,2968,0.114396,0.032762849999999996,2377.614625,12.1784177,-442.796051
2560,2969,0.1191315,0.031500150000000005,2377.614625,7.30705118,-466.67762749999997
2561,2970,0.1226885,0.02916825,2377.614625,2.43568468,-490.559204
2562,2971,0.1274455,0.0275829,2352.510375,90.120285,-60.690788250000004
2563,2972,0.1305635,0.02444135,2352.510375,85.2489166,-84.5723686
2564,2973,0.13503400000000002,0.02226015,2352.510375,80.377552,-108.45394885000002
2565,2974,0.137384,0.0178985,2352.510375,75.50618739999999,-132.335529
2566,2975,0.1411465,0.014784,2352.510375,70.634819,-156.2171095
2567,2976,0.1422285,0.008848265000000001,2352.510375,65.7634525,-180.098686
2568,2977,0.14534249999999999,0.0044758,2352.510375,60.892086,-203.9802625
2569,2978,0.143981,-0.0029924549999999998,2352.510375,56.0207195,-227.86183949999997
2570,2979,0.1506135,-0.008941675,2352.510375,51.14935299999999,-251.74341599999997
2571,2980,0.1380795,-0.00850735,2352.510375,46.277984599999996,-275.625
2572,2981,0.08814944999999999,0.03945235,2352.510375,41.406618099999996,-299.5065765
2573,2982,0.09243445,0.037623899999999995,2352.510375,36.535251599999995,-323.388153
2574,2983,0.09651494999999999,0.03619535,2352.510375,31.6638832,-347.269745
2575,2984,0.10092999999999999,0.0347397,2352.510375,26.7925167,-371.1513215
2576,2985,0.1057595,0.0337535,2352.510375,21.9211502,-395.032898
2577,2986,0.1101725,0.03236845,2352.510375,17.049784199999998,-418.9144745
2578,2987,0.115437,0.0314653,2352.510375,12.1784177,-442.796051
2579,2988,0.119785,0.02987325,2352.510375,7.30705118,-466.67762749999997
2580,2989,0.1253825,0.0288453,2352.510375,2.43568468,-490.559204
2581,2990,0.129524,0.026746600000000002,2327.40625,90.120285,-60.690788250000004
2582,2991,0.13529750000000001,0.025379199999999998,2327.40625,85.2489166,-84.5723686
2583,2992,0.138987,0.022413500000000003,2327.40625,80.377552,-108.45394885000002
2584,2993,0.144571,0.02040865,2327.40625,75.50618739999999,-132.335529
2585,2994,0.147376,0.016250550000000002,2327.40625,70.634819,-156.2171095
2586,2995,0.15219,0.01319605,2327.40625,65.7634525,-180.098686
2587,2996,0.153142,0.008129975000000001,2327.40625,60.892086,-203.9802625
2588,2997,0.156976,0.00355162,2327.40625,56.0207195,-227.86183949999997
2589,2998,0.1533255,0.0014234249999999999,2327.40625,51.14935299999999,-251.74341599999997
2590,2999,0.142943,-0.00542995,2327.40625,46.277984599999996,-275.625
2591,3000,0.0880083,0.03768275,2327.40625,41.406618099999996,-299.5065765
2592,3001,0.09058985,0.03509905,2327.40625,36.535251599999995,-323.388153
2593,3002,0.09517345,0.033633350000000006,2327.40625,31.6638832,-347.269745
2594,3003,0.0998637,0.0325027,2327.40625,26.7925167,-371.1513215
2595,3004,0.10479200000000001,0.031496,2327.40625,21.9211502,-395.032898
2596,3005,0.11028750000000001,0.03082115,2327.40625,17.049784199999998,-418.9144745
2597,3006,0.11526049999999999,0.02986705,2327.40625,12.1784177,-442.796051
2598,3007,0.1213105,0.02928695,2327.40625,7.30705118,-466.67762749999997
2599,3008,0.126221,0.0281045,2327.40625,2.43568468,-490.559204
2600,3009,0.13274350000000001,0.0274116,2302.302125,90.120285,-60.690788250000004
2601,3010,0.1374245,0.02570275,2302.302125,85.2489166,-84.5723686
2602,3011,0.144245,0.024666149999999998,2302.302125,80.377552,-108.45394885000002
2603,3012,0.1483785,0.02203895,2302.302125,75.50618739999999,-132.335529
2604,3013,0.154836,0.0202376,2302.302125,70.634819,-156.2171095
2605,3014,0.1577555,0.01651295,2302.302125,65.7634525,-180.098686
2606,3015,0.1621725,0.01325875,2302.302125,60.892086,-203.9802625
2607,3016,0.162325,0.009662545,2302.302125,56.0207195,-227.86183949999997
2608,3017,0.15839150000000002,0.00419596,2302.302125,51.14935299999999,-251.74341599999997
2609,3018,0.153141,-0.0031846599999999997,2302.302125,46.277984599999996,-275.625
2610,3019,0.08656685,0.034944100000000006,2302.302125,41.406618099999996,-299.5065765
2611,3020,0.08978285000000001,0.032893099999999995,2302.302125,36.535251599999995,-323.388153
2612,3021,0.09361900000000001,0.031178949999999997,2302.302125,31.6638832,-347.269745
2613,3022,0.09863505,0.0303056,2302.302125,26.7925167,-371.1513215
2614,3023,0.1040015,0.029630249999999997,2302.302125,21.9211502,-395.032898
2615,3024,0.1093905,0.0291526,2302.302125,17.049784199999998,-418.9144745
2616,3025,0.1155735,0.028864300000000002,2302.302125,12.1784177,-442.796051
2617,3026,0.12103900000000001,0.028416749999999998,2302.302125,7.30705118,-466.67762749999997
2618,3027,0.12785950000000001,0.028220600000000002,2302.302125,2.43568468,-490.559204
2619,3028,0.1332525,0.02756335,2277.197875,90.120285,-60.690788250000004
2620,3029,0.1406795,0.027278450000000003,2277.197875,85.2489166,-84.5723686
2621,3030,0.14578449999999998,0.02607595,2277.197875,80.377552,-108.45394885000002
2622,3031,0.1535545,0.0253979,2277.197875,75.50618739999999,-132.335529
2623,3032,0.157924,0.02307485,2277.197875,70.634819,-156.2171095
2624,3033,0.164497,0.02125105,2277.197875,65.7634525,-180.098686
2625,3034,0.167124,0.017477799999999998,2277.197875,60.892086,-203.9802625
2626,3035,0.167988,0.0132671,2277.197875,56.0207195,-227.86183949999997
2627,3036,0.16665750000000001,0.00688569,2277.197875,51.14935299999999,-251.74341599999997
2628,3037,0.161599,-0.0012901175,2277.197875,46.277984599999996,-275.625
2629,3038,0.085577,0.032347600000000004,2277.197875,41.406618099999996,-299.5065765
2630,3039,0.08800835000000001,0.030031449999999998,2277.197875,36.535251599999995,-323.388153
2631,3040,0.09234175,0.02898945,2277.197875,31.6638832,-347.269745
2632,3041,0.0971304,0.0280682,2277.197875,26.7925167,-371.1513215
2633,3042,0.102599,0.027871,2277.197875,21.9211502,-395.032898
2634,3043,0.10863649999999998,0.0276978,2277.197875,17.049784199999998,-418.9144745
2635,3044,0.11444300000000002,0.02777835,2277.197875,12.1784177,-442.796051
2636,3045,0.1212405,0.02789435,2277.197875,7.30705118,-466.67762749999997
2637,3046,0.12711450000000002,0.0280228,2277.197875,2.43568468,-490.559204
2638,3047,0.1346175,0.028239600000000004,2252.09375,90.120285,-60.690788250000004
2639,3048,0.1403955,0.028209249999999998,2252.09375,85.2489166,-84.5723686
2640,3049,0.148661,0.02835475,2252.09375,80.377552,-108.45394885000002
2641,3050,0.154072,0.02767365,2252.09375,75.50618739999999,-132.335529
2642,3051,0.162696,0.0272668,2252.09375,70.634819,-156.2171095
2643,3052,0.167111,0.02468225,2252.09375,65.7634525,-180.098686
2644,3053,0.1728985,0.0222768,2252.09375,60.892086,-203.9802625
2645,3054,0.17484650000000002,0.016211200000000002,2252.09375,56.0207195,-227.86183949999997
2646,3055,0.173624,0.009771165,2252.09375,51.14935299999999,-251.74341599999997
2647,3056,0.17263050000000002,0.0004256225,2252.09375,46.277984599999996,-275.625
2648,3057,0.08328405,0.028827150000000003,2252.09375,41.406618099999996,-299.5065765
2649,3058,0.08651049999999999,0.02750805,2252.09375,36.535251599999995,-323.388153
2650,3059,0.09029115,0.026248749999999998,2252.09375,31.6638832,-347.269745
2651,3060,0.09538455,0.026170099999999998,2252.09375,26.7925167,-371.1513215
2652,3061,0.10102725,0.0259738,2252.09375,21.9211502,-395.032898
2653,3062,0.1069215,0.0263878,2252.09375,17.049784199999998,-418.9144745
2654,3063,0.1134915,0.02665645,2252.09375,12.1784177,-442.796051
2655,3064,0.1196405,0.0273005,2252.09375,7.30705118,-466.67762749999997
2656,3065,0.12689650000000002,0.02779525,2252.09375,2.43568468,-490.559204
2657,3066,0.1330905,0.028566050000000003,2226.989625,90.120285,-60.690788250000004
2658,3067,0.14114300000000002,0.029185999999999997,2226.989625,85.2489166,-84.5723686
2659,3068,0.14723999999999998,0.029861,2226.989625,80.377552,-108.45394885000002
2660,3069,0.156354,0.03040435,2226.989625,75.50618739999999,-132.335529
2661,3070,0.1620415,0.03010835,2226.989625,70.634819,-156.2171095
2662,3071,0.17197649999999998,0.0298155,2226.989625,65.7634525,-180.098686
2663,3072,0.1764035,0.02555085,2226.989625,60.892086,-203.9802625
2664,3073,0.1820425,0.02164885,2226.989625,56.0207195,-227.86183949999997
2665,3074,0.183942,0.01200505,2226.989625,51.14935299999999,-251.74341599999997
2666,3075,0.181645,0.0027631749999999997,2226.989625,46.277984599999996,-275.625
2667,3076,0.08147599999999999,0.025752249999999997,2226.989625,41.406618099999996,-299.5065765
2668,3077,0.08383405000000001,0.024058450000000002,2226.989625,36.535251599999995,-323.388153
2669,3078,0.0881586,0.02408085,2226.989625,31.6638832,-347.269745
2670,3079,0.09323125,0.02384165,2226.989625,26.7925167,-371.1513215
2671,3080,0.09893550000000001,0.02444765,2226.989625,21.9211502,-395.032898
2672,3081,0.10515550000000001,0.024766,2226.989625,17.049784199999998,-418.9144745
2673,3082,0.11138400000000001,0.0256993,2226.989625,12.1784177,-442.796051
2674,3083,0.11825849999999999,0.026308700000000004,2226.989625,7.30705118,-466.67762749999997
2675,3084,0.12465799999999999,0.027524850000000003,2226.989625,2.43568468,-490.559204
2676,3085,0.132165,0.0283442,2201.885375,90.120285,-60.690788250000004
2677,3086,0.13862649999999999,0.029822349999999997,2201.885375,85.2489166,-84.5723686
2678,3087,0.147102,0.0307925,2201.885375,80.377552,-108.45394885000002
2679,3088,0.15357500000000002,0.03225565,2201.885375,75.50618739999999,-132.335529
2680,3089,0.1638455,0.033136200000000005,2201.885375,70.634819,-156.2171095
2681,3090,0.170037,0.03310635,2201.885375,65.7634525,-180.098686
2682,3091,0.183441,0.03288455,2201.885375,60.892086,-203.9802625
2683,3092,0.1884285,0.02505015,2201.885375,56.0207195,-227.86183949999997
2684,3093,0.193943,0.018319250000000002,2201.885375,51.14935299999999,-251.74341599999997
2685,3094,0.1953335,0.00494933,2201.885375,46.277984599999996,-275.625
2686,3095,0.07809064999999998,0.021315,2201.885375,41.406618099999996,-299.5065765
2687,3096,0.08113680000000001,0.02154255,2201.885375,36.535251599999995,-323.388153
2688,3097,0.0855915,0.021368099999999998,2201.885375,31.6638832,-347.269745
2689,3098,0.09086375000000001,0.0221023,2201.885375,26.7925167,-371.1513215
2690,3099,0.09667525,0.02244665,2201.885375,21.9211502,-395.032898
2691,3100,0.102801,0.0235053,2201.885375,17.049784199999998,-418.9144745
2692,3101,0.109263,0.02413125,2201.885375,12.1784177,-442.796051
2693,3102,0.11570249999999999,0.0255268,2201.885375,7.30705118,-466.67762749999997
2694,3103,0.12262300000000001,0.026379149999999997,2201.885375,2.43568468,-490.559204
2695,3104,0.12920749999999998,0.028181400000000002,2176.78125,90.120285,-60.690788250000004
2696,3105,0.1367375,0.0292422,2176.78125,85.2489166,-84.5723686
2697,3106,0.1435185,0.0314988,2176.78125,80.377552,-108.45394885000002
2698,3107,0.1523305,0.03271575,2176.78125,75.50618739999999,-132.335529
2699,3108,0.1595115,0.03518625,2176.78125,70.634819,-156.2171095
2700,3109,0.1716875,0.036342700000000006,2176.78125,65.7634525,-180.098686
2701,3110,0.17926899999999998,0.03722155,2176.78125,60.892086,-203.9802625
2702,3111,0.201052,0.0374108,2176.78125,56.0207195,-227.86183949999997
2703,3112,0.2070035,0.02233825,2176.78125,51.14935299999999,-251.74341599999997
2704,3113,0.20793699999999998,0.010028765,2176.78125,46.277984599999996,-275.625
2705,3114,0.0744847,0.018459049999999998,2176.78125,41.406618099999996,-299.5065765
2706,3115,0.07839650000000001,0.018652099999999998,2176.78125,36.535251599999995,-323.388153
2707,3116,0.08301855,0.0194697,2176.78125,31.6638832,-347.269745
2708,3117,0.08839264999999999,0.0198745,2176.78125,26.7925167,-371.1513215
2709,3118,0.0942575,0.0209419,2176.78125,21.9211502,-395.032898
2710,3119,0.1003051,0.0215347,2176.78125,17.049784199999998,-418.9144745
2711,3120,0.10664799999999999,0.02293495,2176.78125,12.1784177,-442.796051
2712,3121,0.1130565,0.0237367,2176.78125,7.30705118,-466.67762749999997
2713,3122,0.11961300000000001,0.02556735,2176.78125,2.43568468,-490.559204
2714,3123,0.126332,0.0265733,2151.677125,90.120285,-60.690788250000004
2715,3124,0.1331205,0.028965150000000002,2151.677125,85.2489166,-84.5723686
2716,3125,0.1404365,0.030144699999999996,2151.677125,80.377552,-108.45394885000002
2717,3126,0.147785,0.0332685,2151.677125,75.50618739999999,-132.335529
2718,3127,0.156792,0.0345438,2151.677125,70.634819,-156.2171095
2719,3128,0.1655625,0.0385937,2151.677125,65.7634525,-180.098686
2720,3129,0.18020599999999998,0.0398079,2151.677125,60.892086,-203.9802625
2721,3130,0.1917455,0.04422045,2151.677125,56.0207195,-227.86183949999997
2722,3131,0.2318525,0.04495385,2151.677125,51.14935299999999,-251.74341599999997
2723,3132,0.2344955,0.014190850000000001,2151.677125,46.277984599999996,-275.625
2724,3133,0.07203504999999999,0.016001849999999998,2151.677125,41.406618099999996,-299.5065765
2725,3134,0.07581919999999999,0.016732450000000003,2151.677125,36.535251599999995,-323.388153
2726,3135,0.0806192,0.017218849999999997,2151.677125,31.6638832,-347.269745
2727,3136,0.0860807,0.01817485,2151.677125,26.7925167,-371.1513215
2728,3137,0.0916704,0.0186898,2151.677125,21.9211502,-395.032898
2729,3138,0.09778970000000001,0.019975800000000002,2151.677125,17.049784199999998,-418.9144745
2730,3139,0.103752,0.020680300000000002,2151.677125,12.1784177,-442.796051
2731,3140,0.1101715,0.022387050000000002,2151.677125,7.30705118,-466.67762749999997
2732,3141,0.116305,0.0232973,2151.677125,2.43568468,-490.559204
2733,3142,0.1229635,0.02553505,2126.572875,90.120285,-60.690788250000004
2734,3143,0.12927699999999998,0.02660605,2126.572875,85.2489166,-84.5723686
2735,3144,0.1364165,0.0295497,2126.572875,80.377552,-108.45394885000002
2736,3145,0.143268,0.03067595,2126.572875,75.50618739999999,-132.335529
2737,3146,0.1517115,0.0347117,2126.572875,70.634819,-156.2171095
2738,3147,0.160386,0.03568065000000001,2126.572875,65.7634525,-180.098686
2739,3148,0.172593,0.04206975,2126.572875,60.892086,-203.9802625
2740,3149,0.18806050000000002,0.042265750000000005,2126.572875,56.0207195,-227.86183949999997
2741,3150,0.2131555,0.056729049999999996,2126.572875,51.14935299999999,-251.74341599999997
2742,3151,0.2846645,0.0489975,2126.572875,46.277984599999996,-275.625
2743,3152,0.10513700000000001,0.04445325,2126.572875,41.406618099999996,-299.5065765
2744,3153,0.11025500000000002,0.04219745,2126.572875,36.535251599999995,-323.388153
2745,3154,0.1158985,0.04067235,2126.572875,31.6638832,-347.269745
2746,3155,0.1216455,0.039113300000000004,2126.572875,26.7925167,-371.1513215
2747,3156,0.1276245,0.037863499999999994,2126.572875,21.9211502,-395.032898
2748,3157,0.13376749999999998,0.0365976,2126.572875,17.049784199999998,-418.9144745
2749,3158,0.13982699999999998,0.0352805,2126.572875,12.1784177,-442.796051
2750,3159,0.14607150000000002,0.033947149999999995,2126.572875,7.30705118,-466.67762749999997
2751,3160,0.1518955,0.0321605,2126.572875,2.43568468,-490.559204
2752,3161,0.157923,0.030378549999999997,2101.46875,90.120285,-60.690788250000004
2753,3162,0.1631435,0.027609300000000003,2101.46875,85.2489166,-84.5723686
2754,3163,0.16851,0.024842200000000002,2101.46875,80.377552,-108.45394885000002
2755,3164,0.17270999999999997,0.02038255,2101.46875,75.50618739999999,-132.335529
2756,3165,0.176539,0.015674599999999997,2101.46875,70.634819,-156.2171095
2757,3166,0.179476,0.008863784999999999,2101.46875,65.7634525,-180.098686
2758,3167,0.180503,0.0004395305,2101.46875,60.892086,-203.9802625
2759,3168,0.1832655,-0.00848546,2101.46875,56.0207195,-227.86183949999997
2760,3169,0.182477,-0.0248253,2101.46875,51.14935299999999,-251.74341599999997
2761,3170,0.2038435,-0.031919600000000006,2101.46875,46.277984599999996,-275.625
2762,3171,0.10176299999999999,0.039803050000000006,2101.46875,41.406618099999996,-299.5065765
2763,3172,0.1073435,0.038129350000000006,2101.46875,36.535251599999995,-323.388153
2764,3173,0.113593,0.036682599999999996,2101.46875,31.6638832,-347.269745
2765,3174,0.119783,0.035631449999999995,2101.46875,26.7925167,-371.1513215
2766,3175,0.1263195,0.0345733,2101.46875,21.9211502,-395.032898
2767,3176,0.1327685,0.0336254,2101.46875,17.049784199999998,-418.9144745
2768,3177,0.13960499999999998,0.03264205,2101.46875,12.1784177,-442.796051
2769,3178,0.146125,0.031467350000000005,2101.46875,7.30705118,-466.67762749999997
2770,3179,0.153132,0.0302785,2101.46875,2.43568468,-490.559204
2771,3180,0.15952699999999997,0.028538,2076.364625,90.120285,-60.690788250000004
2772,3181,0.16655250000000002,0.026836600000000002,2076.364625,85.2489166,-84.5723686
2773,3182,0.1726625,0.024025900000000003,2076.364625,80.377552,-108.45394885000002
2774,3183,0.17928,0.02133015,2076.364625,75.50618739999999,-132.335529
2775,3184,0.1851525,0.0166148,2076.364625,70.634819,-156.2171095
2776,3185,0.189769,0.012007899999999998,2076.364625,65.7634525,-180.098686
2777,3186,0.196367,0.00466951,2076.364625,60.892086,-203.9802625
2778,3187,0.19563049999999998,-0.002758715,2076.364625,56.0207195,-227.86183949999997
2779,3188,0.20958300000000002,-0.0122039,2076.364625,51.14935299999999,-251.74341599999997
2780,3189,0.19258999999999998,-0.007396435,2076.364625,46.277984599999996,-275.625
2781,3190,0.0980133,0.035379,2076.364625,41.406618099999996,-299.5065765
2782,3191,0.10469600000000001,0.033862249999999997,2076.364625,36.535251599999995,-323.388153
2783,3192,0.1108985,0.03275775,2076.364625,31.6638832,-347.269745
2784,3193,0.11785899999999999,0.03194655,2076.364625,26.7925167,-371.1513215
2785,3194,0.1246125,0.03136705,2076.364625,21.9211502,-395.032898
2786,3195,0.131903,0.03077885,2076.364625,17.049784199999998,-418.9144745
2787,3196,0.138904,0.030178299999999998,2076.364625,12.1784177,-442.796051
2788,3197,0.1464935,0.029548649999999996,2076.364625,7.30705118,-466.67762749999997
2789,3198,0.15361650000000002,0.028699250000000003,2076.364625,2.43568468,-490.559204
2790,3199,0.161526,0.027879,2051.260435,90.120285,-60.690788250000004
2791,3200,0.168701,0.0265167,2051.260435,85.2489166,-84.5723686
2792,3201,0.1769455,0.02536165,2051.260435,80.377552,-108.45394885000002
2793,3202,0.1842125,0.02289145,2051.260435,75.50618739999999,-132.335529
2794,3203,0.1923475,0.02114245,2051.260435,70.634819,-156.2171095
2795,3204,0.200115,0.01614135,2051.260435,65.7634525,-180.098686
2796,3205,0.20512950000000002,0.013324799999999998,2051.260435,60.892086,-203.9802625
2797,3206,0.2142145,0.004830435,2051.260435,56.0207195,-227.86183949999997
2798,3207,0.2099785,0.005447155,2051.260435,51.14935299999999,-251.74341599999997
2799,3208,0.197732,-0.00375368,2051.260435,46.277984599999996,-275.625
2800,3209,0.09628965,0.03166865,2051.260435,41.406618099999996,-299.5065765
2801,3210,0.1015775,0.029659699999999997,2051.260435,36.535251599999995,-323.388153
2802,3211,0.10855100000000001,0.02886295,2051.260435,31.6638832,-347.269745
2803,3212,0.1153935,0.028468150000000005,2051.260435,26.7925167,-371.1513215
2804,3213,0.1230325,0.02824445,2051.260435,21.9211502,-395.032898
2805,3214,0.1303495,0.028108750000000002,2051.260435,17.049784199999998,-418.9144745
2806,3215,0.138294,0.0279675,2051.260435,12.1784177,-442.796051
2807,3216,0.1458485,0.02780285,2051.260435,7.30705118,-466.67762749999997
2808,3217,0.1541345,0.027644750000000003,2051.260435,2.43568468,-490.559204
2809,3218,0.1618695,0.027359,2026.15625,90.120285,-60.690788250000004
2810,3219,0.1706785,0.0272142,2026.15625,85.2489166,-84.5723686
2811,3220,0.17859799999999998,0.02658535,2026.15625,80.377552,-108.45394885000002
2812,3221,0.188231,0.026562099999999998,2026.15625,75.50618739999999,-132.335529
2813,3222,0.19635650000000002,0.0246966,2026.15625,70.634819,-156.2171095
2814,3223,0.20674550000000003,0.0249008,2026.15625,65.7634525,-180.098686
2815,3224,0.21473000000000003,0.0188879,2026.15625,60.892086,-203.9802625
2816,3225,0.220005,0.01894655,2026.15625,56.0207195,-227.86183949999997
2817,3226,0.218082,0.008556850000000001,2026.15625,51.14935299999999,-251.74341599999997
2818,3227,0.208102,0.0009906435,2026.15625,46.277984599999996,-275.625
2819,3228,0.09372895,0.027002949999999998,2026.15625,41.406618099999996,-299.5065765
2820,3229,0.0991349,0.0256328,2026.15625,36.535251599999995,-323.388153
2821,3230,0.105565,0.02514535,2026.15625,31.6638832,-347.269745
2822,3231,0.1132775,0.0251567,2026.15625,26.7925167,-371.1513215
2823,3232,0.120723,0.0253097,2026.15625,21.9211502,-395.032898
2824,3233,0.1288855,0.025561,2026.15625,17.049784199999998,-418.9144745
2825,3234,0.13668249999999998,0.02586275,2026.15625,12.1784177,-442.796051
2826,3235,0.14509650000000002,0.0261831,2026.15625,7.30705118,-466.67762749999997
2827,3236,0.1530995,0.02659,2026.15625,2.43568468,-490.559204
2828,3237,0.1619045,0.02706145,2001.052065,90.120285,-60.690788250000004
2829,3238,0.1700955,0.027602349999999998,2001.052065,85.2489166,-84.5723686
2830,3239,0.17969249999999998,0.02844655,2001.052065,80.377552,-108.45394885000002
2831,3240,0.1880175,0.028915299999999998,2001.052065,75.50618739999999,-132.335529
2832,3241,0.19938499999999998,0.03051155,2001.052065,70.634819,-156.2171095
2833,3242,0.20732350000000002,0.029525299999999997,2001.052065,65.7634525,-180.098686
2834,3243,0.221984,0.03201875,2001.052065,60.892086,-203.9802625
2835,3244,0.2259065,0.0230581,2001.052065,56.0207195,-227.86183949999997
2836,3245,0.22843599999999997,0.0187436,2001.052065,51.14935299999999,-251.74341599999997
2837,3246,0.222343,0.003735215,2001.052065,46.277984599999996,-275.625
2838,3247,0.09058165,0.021931449999999998,2001.052065,41.406618099999996,-299.5065765
2839,3248,0.0959101,0.021607599999999998,2001.052065,36.535251599999995,-323.388153
2840,3249,0.10317399999999999,0.021730850000000003,2001.052065,31.6638832,-347.269745
2841,3250,0.1104775,0.02199925,2001.052065,26.7925167,-371.1513215
2842,3251,0.1186875,0.022523550000000003,2001.052065,21.9211502,-395.032898
2843,3252,0.126579,0.0230778,2001.052065,17.049784199999998,-418.9144745
2844,3253,0.13501000000000002,0.0237205,2001.052065,12.1784177,-442.796051
2845,3254,0.143113,0.02450315,2001.052065,7.30705118,-466.67762749999997
2846,3255,0.1517305,0.02533585,2001.052065,2.43568468,-490.559204
2847,3256,0.159973,0.0264647,1975.9479350000001,90.120285,-60.690788250000004
2848,3257,0.1690065,0.02769795,1975.9479350000001,85.2489166,-84.5723686
2849,3258,0.177363,0.0293203,1975.9479350000001,80.377552,-108.45394885000002
2850,3259,0.18753999999999998,0.031302250000000004,1975.9479350000001,75.50618739999999,-132.335529
2851,3260,0.195809,0.033322649999999995,1975.9479350000001,70.634819,-156.2171095
2852,3261,0.20940899999999998,0.036458,1975.9479350000001,65.7634525,-180.098686
2853,3262,0.2162735,0.03712265,1975.9479350000001,60.892086,-203.9802625
2854,3263,0.23933300000000002,0.040069499999999994,1975.9479350000001,56.0207195,-227.86183949999997
2855,3264,0.241242,0.022998499999999998,1975.9479350000001,51.14935299999999,-251.74341599999997
2856,3265,0.23685050000000002,0.01034635,1975.9479350000001,46.277984599999996,-275.625
2857,3266,0.08657400000000001,0.0175066,1975.9479350000001,41.406618099999996,-299.5065765
2858,3267,0.0933129,0.018040050000000002,1975.9479350000001,36.535251599999995,-323.388153
2859,3268,0.10018025,0.01840895,1975.9479350000001,31.6638832,-347.269745
2860,3269,0.1081955,0.01910955,1975.9479350000001,26.7925167,-371.1513215
2861,3270,0.11603450000000001,0.01972875,1975.9479350000001,21.9211502,-395.032898
2862,3271,0.124385,0.0205482,1975.9479350000001,17.049784199999998,-418.9144745
2863,3272,0.13248349999999998,0.0214618,1975.9479350000001,12.1784177,-442.796051
2864,3273,0.1408885,0.022476,1975.9479350000001,7.30705118,-466.67762749999997
2865,3274,0.149062,0.0238033,1975.9479350000001,2.43568468,-490.559204
2866,3275,0.157548,0.0251878,1950.84375,90.120285,-60.690788250000004
2867,3276,0.16576950000000001,0.02715405,1950.84375,85.2489166,-84.5723686
2868,3277,0.1746225,0.029155,1950.84375,80.377552,-108.45394885000002
2869,3278,0.182913,0.032077549999999996,1950.84375,75.50618739999999,-132.335529
2870,3279,0.1932035,0.034947900000000004,1950.84375,70.634819,-156.2171095
2871,3280,0.2016435,0.03919545,1950.84375,65.7634525,-180.098686
2872,3281,0.21737850000000003,0.042703,1950.84375,60.892086,-203.9802625
2873,3282,0.2264535,0.047609849999999995,1950.84375,56.0207195,-227.86183949999997
2874,3283,0.269049,0.05022485,1950.84375,51.14935299999999,-251.74341599999997
2875,3284,0.266276,0.015210399999999999,1950.84375,46.277984599999996,-275.625
2876,3285,0.08402975,0.01427565,1950.84375,41.406618099999996,-299.5065765
2877,3286,0.090307,0.014666450000000001,1950.84375,36.535251599999995,-323.388153
2878,3287,0.0979119,0.015525750000000001,1950.84375,31.6638832,-347.269745
2879,3288,0.105554,0.016071299999999997,1950.84375,26.7925167,-371.1513215
2880,3289,0.11367949999999999,0.016935600000000002,1950.84375,21.9211502,-395.032898
2881,3290,0.12170049999999999,0.01779505,1950.84375,17.049784199999998,-418.9144745
2882,3291,0.12988,0.018843850000000002,1950.84375,12.1784177,-442.796051
2883,3292,0.137931,0.0201293,1950.84375,7.30705118,-466.67762749999997
2884,3293,0.14600600000000002,0.02151215,1950.84375,2.43568468,-490.559204
2885,3294,0.15399449999999998,0.023411,1925.739565,90.120285,-60.690788250000004
2886,3295,0.161976,0.0253225,1925.739565,85.2489166,-84.5723686
2887,3296,0.169977,0.0281484,1925.739565,80.377552,-108.45394885000002
2888,3297,0.1781205,0.030741949999999997,1925.739565,75.50618739999999,-132.335529
2889,3298,0.186588,0.0350577,1925.739565,70.634819,-156.2171095
2890,3299,0.19596850000000002,0.03810445,1925.739565,65.7634525,-180.098686
2891,3300,0.2070215,0.04534985,1925.739565,60.892086,-203.9802625
2892,3301,0.222668,0.047481499999999996,1925.739565,56.0207195,-227.86183949999997
2893,3302,0.24646,0.0638653,1925.739565,51.14935299999999,-251.74341599999997
2894,3303,0.3235185,0.05578520000000001,1925.739565,46.277984599999996,-275.625
2895,3304,0.35193850000000004,0.057743699999999995,1925.739565,41.406618099999996,-299.5065765
2896,3305,0.250922,0.06750804999999999,1925.739565,36.535251599999995,-323.388153
2897,3306,0.21329199999999998,0.0503835,1925.739565,31.6638832,-347.269745
2898,3307,0.18317,0.0468539,1925.739565,26.7925167,-371.1513215
2899,3308,0.15722,0.0393374,1925.739565,21.9211502,-395.032898
2900,3309,0.13265300000000002,0.035602499999999995,1925.739565,17.049784199999998,-418.9144745
2901,3310,0.10862450000000001,0.031486,1925.739565,12.1784177,-442.796051
2902,3311,0.08616805,0.02933375,1925.739565,7.30705118,-466.67762749999997
2903,3312,0.06534845,0.027210450000000004,1925.739565,2.43568468,-490.559204
2904,3313,0.05004225,0.0263428,1900.6354350000001,90.120285,-60.690788250000004
2905,3314,0.04458905,0.025589349999999997,1900.6354350000001,85.2489166,-84.5723686
2906,3315,0.05337089999999999,0.0257477,1900.6354350000001,80.377552,-108.45394885000002
2907,3316,0.07051815,0.02612105,1900.6354350000001,75.50618739999999,-132.335529
2908,3317,0.09196105,0.027363850000000002,1900.6354350000001,70.634819,-156.2171095
2909,3318,0.11489449999999998,0.02898165,1900.6354350000001,65.7634525,-180.098686
2910,3319,0.138847,0.0317567,1900.6354350000001,60.892086,-203.9802625
2911,3320,0.163308,0.035006300000000004,1900.6354350000001,56.0207195,-227.86183949999997
2912,3321,0.1882005,0.040457999999999994,1900.6354350000001,51.14935299999999,-251.74341599999997
2913,3322,0.21488000000000002,0.0451005,1900.6354350000001,46.277984599999996,-275.625
2914,3323,0.2846575,0.0158367,1900.6354350000001,41.406618099999996,-299.5065765
2915,3324,0.280482,0.05919015,1900.6354350000001,36.535251599999995,-323.388153
2916,3325,0.220856,0.0545685,1900.6354350000001,31.6638832,-347.269745
2917,3326,0.198312,0.04982515,1900.6354350000001,26.7925167,-371.1513215
2918,3327,0.1674375,0.04507775,1900.6354350000001,21.9211502,-395.032898
2919,3328,0.1430555,0.04106705,1900.6354350000001,17.049784199999998,-418.9144745
2920,3329,0.118509,0.038652399999999996,1900.6354350000001,12.1784177,-442.796051
2921,3330,0.09632745000000001,0.03637675,1900.6354350000001,7.30705118,-466.67762749999997
2922,3331,0.07713010000000001,0.03528865,1900.6354350000001,2.43568468,-490.559204
2923,3332,0.06322625000000001,0.03426295,1875.53125,90.120285,-60.690788250000004
2924,3333,0.05910209999999999,0.03401975,1875.53125,85.2489166,-84.5723686
2925,3334,0.06570984999999999,0.033884250000000005,1875.53125,80.377552,-108.45394885000002
2926,3335,0.08113880000000001,0.03437225000000001,1875.53125,75.50618739999999,-132.335529
2927,3336,0.1009855,0.035074350000000004,1875.53125,70.634819,-156.2171095
2928,3337,0.1234685,0.03647,1875.53125,65.7634525,-180.098686
2929,3338,0.147597,0.03831205,1875.53125,60.892086,-203.9802625
2930,3339,0.172161,0.0410456,1875.53125,56.0207195,-227.86183949999997
2931,3340,0.199781,0.044810100000000005,1875.53125,51.14935299999999,-251.74341599999997
2932,3341,0.22451900000000002,0.049430550000000004,1875.53125,46.277984599999996,-275.625
2933,3342,0.24963050000000003,0.01757815,1875.53125,41.406618099999996,-299.5065765
2934,3343,0.2482395,0.03160735,1875.53125,36.535251599999995,-323.388153
2935,3344,0.238103,0.052438349999999995,1875.53125,31.6638832,-347.269745
2936,3345,0.19931849999999998,0.046805799999999995,1875.53125,26.7925167,-371.1513215
2937,3346,0.176288,0.046883850000000005,1875.53125,21.9211502,-395.032898
2938,3347,0.1487155,0.044611399999999996,1875.53125,17.049784199999998,-418.9144745
2939,3348,0.1262645,0.043388750000000004,1875.53125,12.1784177,-442.796051
2940,3349,0.1046715,0.042557,1875.53125,7.30705118,-466.67762749999997
2941,3350,0.0873141,0.04186165,1875.53125,2.43568468,-490.559204
2942,3351,0.07541234999999999,0.041596999999999995,1850.427065,90.120285,-60.690788250000004
2943,3352,0.07176534999999999,0.0413629,1850.427065,85.2489166,-84.5723686
2944,3353,0.0776753,0.041412500000000005,1850.427065,80.377552,-108.45394885000002
2945,3354,0.09097625,0.04152105,1850.427065,75.50618739999999,-132.335529
2946,3355,0.1092885,0.04188209999999999,1850.427065,70.634819,-156.2171095
2947,3356,0.130663,0.0424312,1850.427065,65.7634525,-180.098686
2948,3357,0.1535565,0.043159050000000004,1850.427065,60.892086,-203.9802625
2949,3358,0.178982,0.04462435000000001,1850.427065,56.0207195,-227.86183949999997
2950,3359,0.203602,0.04525015,1850.427065,51.14935299999999,-251.74341599999997
2951,3360,0.2347675,0.04882444999999999,1850.427065,46.277984599999996,-275.625
2952,3361,0.22914600000000002,0.01343455,1850.427065,41.406618099999996,-299.5065765
2953,3362,0.235654,0.0335178,1850.427065,36.535251599999995,-323.388153
2954,3363,0.222823,0.033301,1850.427065,31.6638832,-347.269745
2955,3364,0.201147,0.0448244,1850.427065,26.7925167,-371.1513215
2956,3365,0.1737885,0.04463655,1850.427065,21.9211502,-395.032898
2957,3366,0.1526405,0.04697295,1850.427065,17.049784199999998,-418.9144745
2958,3367,0.12997,0.0472226,1850.427065,12.1784177,-442.796051
2959,3368,0.11197900000000001,0.04790485,1850.427065,7.30705118,-466.67762749999997
2960,3369,0.09639935000000002,0.04816065,1850.427065,2.43568468,-490.559204
2961,3370,0.08690129999999999,0.04844595,1825.3229350000001,90.120285,-60.690788250000004
2962,3371,0.08414195000000001,0.0485182,1825.3229350000001,85.2489166,-84.5723686
2963,3372,0.0891938,0.0485547,1825.3229350000001,80.377552,-108.45394885000002
2964,3373,0.100687,0.04840305,1825.3229350000001,75.50618739999999,-132.335529
2965,3374,0.1169665,0.0482138,1825.3229350000001,70.634819,-156.2171095
2966,3375,0.13605150000000002,0.04774395,1825.3229350000001,65.7634525,-180.098686
2967,3376,0.15774649999999998,0.04739005,1825.3229350000001,60.892086,-203.9802625
2968,3377,0.1800575,0.0460598,1825.3229350000001,56.0207195,-227.86183949999997
2969,3378,0.204798,0.0456077,1825.3229350000001,51.14935299999999,-251.74341599999997
2970,3379,0.2291975,0.0405852,1825.3229350000001,46.277984599999996,-275.625
2971,3380,0.216044,0.0176955,1825.3229350000001,41.406618099999996,-299.5065765
2972,3381,0.225799,0.0148882,1825.3229350000001,36.535251599999995,-323.388153
2973,3382,0.202033,0.02956085,1825.3229350000001,31.6638832,-347.269745
2974,3383,0.188104,0.0366413,1825.3229350000001,26.7925167,-371.1513215
2975,3384,0.1702325,0.04525965,1825.3229350000001,21.9211502,-395.032898
2976,3385,0.150029,0.04827465,1825.3229350000001,17.049784199999998,-418.9144745
2977,3386,0.1339165,0.051831,1825.3229350000001,12.1784177,-442.796051
2978,3387,0.11763850000000001,0.05331685,1825.3229350000001,7.30705118,-466.67762749999997
2979,3388,0.10634199999999999,0.0549007,1825.3229350000001,2.43568468,-490.559204
2980,3389,0.09851380000000001,0.0554877,1800.21875,90.120285,-60.690788250000004
2981,3390,0.09711975,0.0560224,1800.21875,85.2489166,-84.5723686
2982,3391,0.1012515,0.0559028,1800.21875,80.377552,-108.45394885000002
2983,3392,0.1110695,0.0556494,1800.21875,75.50618739999999,-132.335529
2984,3393,0.12456700000000001,0.054743150000000004,1800.21875,70.634819,-156.2171095
2985,3394,0.141343,0.053621199999999994,1800.21875,65.7634525,-180.098686
2986,3395,0.15942800000000001,0.05145905,1800.21875,60.892086,-203.9802625
2987,3396,0.179191,0.048991349999999996,1800.21875,56.0207195,-227.86183949999997
2988,3397,0.199295,0.044134599999999996,1800.21875,51.14935299999999,-251.74341599999997
2989,3398,0.21696,0.0382974,1800.21875,46.277984599999996,-275.625
2990,3399,0.21329399999999998,-0.007821305,1800.21875,41.406618099999996,-299.5065765
2991,3400,0.1856775,0.00628808,1800.21875,36.535251599999995,-323.388153
2992,3401,0.183172,0.0248179,1800.21875,31.6638832,-347.269745
2993,3402,0.1729355,0.03776934999999999,1800.21875,26.7925167,-371.1513215
2994,3403,0.161242,0.04589055,1800.21875,21.9211502,-395.032898
2995,3404,0.15016649999999998,0.05356775,1800.21875,17.049784199999998,-418.9144745
2996,3405,0.1364575,0.057077199999999995,1800.21875,12.1784177,-442.796051
2997,3406,0.1263605,0.06070245,1800.21875,7.30705118,-466.67762749999997
2998,3407,0.116874,0.062205250000000004,1800.21875,2.43568468,-490.559204
2999,3408,0.1122535,0.06370545,1775.114565,90.120285,-60.690788250000004
3000,3409,0.1109935,0.06403215000000001,1775.114565,85.2489166,-84.5723686
3001,3410,0.115031,0.06423125,1775.114565,80.377552,-108.45394885000002
3002,3411,0.12261549999999999,0.06351725,1775.114565,75.50618739999999,-132.335529
3003,3412,0.134036,0.0625397,1775.114565,70.634819,-156.2171095
3004,3413,0.1471715,0.06042235,1775.114565,65.7634525,-180.098686
3005,3414,0.16224650000000002,0.057759500000000005,1775.114565,60.892086,-203.9802625
3006,3415,0.177241,0.0532486,1775.114565,56.0207195,-227.86183949999997
3007,3416,0.19168849999999998,0.0471762,1775.114565,51.14935299999999,-251.74341599999997
3008,3417,0.206146,0.03921715,1775.114565,46.277984599999996,-275.625
3009,3418,0.22153799999999998,0.02649295,1775.114565,41.406618099999996,-299.5065765
3010,3419,0.2001915,0.02649295,1775.114565,36.535251599999995,-323.388153
3011,3420,0.17897249999999998,0.02649295,1775.114565,31.6638832,-347.269745
3012,3421,0.157931,0.02649295,1775.114565,26.7925167,-371.1513215
3013,3422,0.13714949999999998,0.02649295,1775.114565,21.9211502,-395.032898
3014,3423,0.11676800000000001,0.02649295,1775.114565,17.049784199999998,-418.9144745
3015,3424,0.0970373,0.02649295,1775.114565,12.1784177,-442.796051
3016,3425,0.07845099999999999,0.02649295,1775.114565,7.30705118,-466.67762749999997
3017,3426,0.06204634999999999,0.02649295,1775.114565,2.43568468,-490.559204
3018,3427,0.0500182,0.02649295,1750.0104350000001,90.120285,-60.690788250000004
3019,3428,0.045940800000000004,0.02649295,1750.0104350000001,85.2489166,-84.5723686
3020,3429,0.05172725,0.02649295,1750.0104350000001,80.377552,-108.45394885000002
3021,3430,0.0647885,0.02649295,1750.0104350000001,75.50618739999999,-132.335529
3022,3431,0.08170835,0.02649295,1750.0104350000001,70.634819,-156.2171095
3023,3432,0.10055740000000002,0.02649295,1750.0104350000001,65.7634525,-180.098686
3024,3433,0.12043299999999998,0.02649295,1750.0104350000001,60.892086,-203.9802625
3025,3434,0.140902,0.02649295,1750.0104350000001,56.0207195,-227.86183949999997
3026,3435,0.1617385,0.02649295,1750.0104350000001,51.14935299999999,-251.74341599999997
3027,3436,0.182817,0.02649295,1750.0104350000001,46.277984599999996,-275.625
3028,3437,0.0597613,0.0333378,1750.0104350000001,41.406618099999996,-299.5065765
3029,3438,0.053807850000000004,0.031028550000000002,1750.0104350000001,36.535251599999995,-323.388153
3030,3439,0.0637932,0.036473000000000005,1750.0104350000001,31.6638832,-347.269745
3031,3440,0.053266549999999996,0.0307225,1750.0104350000001,26.7925167,-371.1513215
3032,3441,0.06334419999999999,0.036551,1750.0104350000001,21.9211502,-395.032898
3033,3442,0.05617775,0.03241845,1750.0104350000001,17.049784199999998,-418.9144745
3034,3443,0.0636453,0.036694149999999995,1750.0104350000001,12.1784177,-442.796051
3035,3444,0.056312249999999994,0.0323861,1750.0104350000001,7.30705118,-466.67762749999997
3036,3445,0.0632675,0.036172499999999996,1750.0104350000001,2.43568468,-490.559204
3037,3446,0.05588455,0.0319093,1724.90625,90.120285,-60.690788250000004
3038,3447,0.061961350000000005,0.034937850000000006,1724.90625,85.2489166,-84.5723686
3039,3448,0.055006700000000006,0.030985850000000002,1724.90625,80.377552,-108.45394885000002
3040,3449,0.0615188,0.03369865,1724.90625,75.50618739999999,-132.335529
3041,3450,0.05148635,0.02848365,1724.90625,70.634819,-156.2171095
3042,3451,0.05753125,0.029842149999999998,1724.90625,65.7634525,-180.098686
3043,3452,0.05043815,0.027977949999999998,1724.90625,60.892086,-203.9802625
3044,3453,0.06737784999999999,0.03859395,1724.90625,56.0207195,-227.86183949999997
3045,3454,0.0632201,0.036090950000000004,1724.90625,51.14935299999999,-251.74341599999997
3046,3455,0.0717882,0.04135125,1724.90625,46.277984599999996,-275.625
3047,3456,0.061395000000000005,0.035066150000000004,1724.90625,41.406618099999996,-299.5065765
3048,3457,0.07046685,0.0404187,1724.90625,36.535251599999995,-323.388153
3049,3458,0.06426405,0.0363932,1724.90625,31.6638832,-347.269745
3050,3459,0.07025925,0.0399302,1724.90625,26.7925167,-371.1513215
3051,3460,0.0638579,0.03561085,1724.90625,21.9211502,-395.032898
3052,3461,0.06899240000000001,0.0385494,1724.90625,17.049784199999998,-418.9144745
3053,3462,0.0635423,0.0348441,1724.90625,12.1784177,-442.796051
3054,3463,0.06785205,0.0372212,1724.90625,7.30705118,-466.67762749999997
3055,3464,0.0626443,0.03349665,1724.90625,2.43568468,-490.559204
3056,3465,0.06732679999999999,0.0357952,1699.802065,90.120285,-60.690788250000004
3057,3466,0.060871949999999994,0.031609750000000006,1699.802065,85.2489166,-84.5723686
3058,3467,0.06505079999999999,0.0331754,1699.802065,80.377552,-108.45394885000002
3059,3468,0.059360249999999996,0.02962505,1699.802065,75.50618739999999,-132.335529
3060,3469,0.06379485,0.03061275,1699.802065,70.634819,-156.2171095
3061,3470,0.0551292,0.02594635,1699.802065,65.7634525,-180.098686
3062,3471,0.059919349999999996,0.0257009,1699.802065,60.892086,-203.9802625
3063,3472,0.05216704999999999,0.02456485,1699.802065,56.0207195,-227.86183949999997
3064,3473,0.07773535,0.04465495,1699.802065,51.14935299999999,-251.74341599999997
3065,3474,0.0757188,0.041486800000000004,1699.802065,46.277984599999996,-275.625
3066,3475,0.08191865000000001,0.04650635,1699.802065,41.406618099999996,-299.5065765
3067,3476,0.073015,0.03985185,1699.802065,36.535251599999995,-323.388153
3068,3477,0.08003869999999999,0.0445397,1699.802065,31.6638832,-347.269745
3069,3478,0.0751955,0.0402822,1699.802065,26.7925167,-371.1513215
3070,3479,0.0787139,0.0428683,1699.802065,21.9211502,-395.032898
3071,3480,0.0744095,0.0387208,1699.802065,17.049784199999998,-418.9144745
3072,3481,0.0768307,0.04071855,1699.802065,12.1784177,-442.796051
3073,3482,0.07389870000000001,0.037221950000000004,1699.802065,7.30705118,-466.67762749999997
3074,3483,0.0757387,0.03883315,1699.802065,2.43568468,-490.559204
3075,3484,0.07225129999999999,0.03494685,1674.6979350000001,90.120285,-60.690788250000004
3076,3485,0.07400865000000001,0.036364,1674.6979350000001,85.2489166,-84.5723686
3077,3486,0.07129769999999999,0.032904550000000005,1674.6979350000001,80.377552,-108.45394885000002
3078,3487,0.07325235,0.03402405,1674.6979350000001,75.50618739999999,-132.335529
3079,3488,0.0688756,0.02974525,1674.6979350000001,70.634819,-156.2171095
3080,3489,0.07073370000000001,0.030108049999999997,1674.6979350000001,65.7634525,-180.098686
3081,3490,0.06708205,0.0268684,1674.6979350000001,60.892086,-203.9802625
3082,3491,0.0687725,0.026160250000000003,1674.6979350000001,56.0207195,-227.86183949999997
3083,3492,0.06278105,0.022024349999999998,1674.6979350000001,51.14935299999999,-251.74341599999997
3084,3493,0.065358,0.020227750000000003,1674.6979350000001,46.277984599999996,-275.625
3085,3494,0.058454599999999995,0.01984685,1674.6979350000001,41.406618099999996,-299.5065765
3086,3495,0.08957480000000001,0.05037195,1674.6979350000001,36.535251599999995,-323.388153
3087,3496,0.09020555,0.046551449999999994,1674.6979350000001,31.6638832,-347.269745
3088,3497,0.0936673,0.05126825,1674.6979350000001,26.7925167,-371.1513215
3089,3498,0.08657134999999999,0.0440243,1674.6979350000001,21.9211502,-395.032898
3090,3499,0.0910142,0.047917299999999996,1674.6979350000001,17.049784199999998,-418.9144745
3091,3500,0.08808679999999999,0.043421600000000005,1674.6979350000001,12.1784177,-442.796051
3092,3501,0.0886217,0.0449382,1674.6979350000001,7.30705118,-466.67762749999997
3093,3502,0.08686450000000001,0.04082145,1674.6979350000001,2.43568468,-490.559204
3094,3503,0.0860641,0.0417377,1649.59375,90.120285,-60.690788250000004
3095,3504,0.08582235,0.03823245,1649.59375,85.2489166,-84.5723686
3096,3505,0.08447925,0.03883315,1649.59375,80.377552,-108.45394885000002
3097,3506,0.08377285000000001,0.03494685,1649.59375,75.50618739999999,-132.335529
3098,3507,0.08235055000000001,0.03534485,1649.59375,70.634819,-156.2171095
3099,3508,0.08252725,0.03189415,1649.59375,65.7634525,-180.098686
3100,3509,0.08145515,0.03195415,1649.59375,60.892086,-203.9802625
3101,3510,0.07987709999999999,0.027644600000000002,1649.59375,56.0207195,-227.86183949999997
3102,3511,0.0788796,0.02673035,1649.59375,51.14935299999999,-251.74341599999997
3103,3512,0.077871,0.023729,1649.59375,46.277984599999996,-275.625
3104,3513,0.0765826,0.02139835,1649.59375,41.406618099999996,-299.5065765
3105,3514,0.07385385,0.0178519,1649.59375,36.535251599999995,-323.388153
3106,3515,0.07367255,0.01451075,1649.59375,31.6638832,-347.269745
3107,3516,0.06883410000000001,0.014782199999999999,1649.59375,26.7925167,-371.1513215
3108,3517,0.09525765,0.05081605,1649.59375,21.9211502,-395.032898
3109,3518,0.0996544,0.046281800000000005,1649.59375,17.049784199999998,-418.9144745
3110,3519,0.0994328,0.05034455,1649.59375,12.1784177,-442.796051
3111,3520,0.0947237,0.04191675,1649.59375,7.30705118,-466.67762749999997
3112,3521,0.09625425,0.0446169,1649.59375,2.43568468,-490.559204
3113,3522,0.09505445,0.03958125,1624.489565,90.120285,-60.690788250000004
3114,3523,0.0924738,0.03930235,1624.489565,85.2489166,-84.5723686
3115,3524,0.0930999,0.03477015,1624.489565,80.377552,-108.45394885000002
3116,3525,0.08958075,0.033564300000000005,1624.489565,75.50618739999999,-132.335529
3117,3526,0.09019785,0.029525299999999997,1624.489565,70.634819,-156.2171095
3118,3527,0.0857335,0.02687195,1624.489565,65.7634525,-180.098686
3119,3528,0.0871918,0.0238231,1624.489565,60.892086,-203.9802625
3120,3529,0.08216105,0.01982715,1624.489565,56.0207195,-227.86183949999997
3121,3530,0.08318819999999999,0.017289449999999998,1624.489565,51.14935299999999,-251.74341599999997
3122,3531,0.07880984999999999,0.0123639,1624.489565,46.277984599999996,-275.625
3123,3532,0.07792270000000001,0.01272465,1624.489565,41.406618099999996,-299.5065765
3124,3533,0.24387350000000002,0.05637895,1624.489565,36.535251599999995,-323.388153
3125,3534,0.2960785,0.05557395,1624.489565,31.6638832,-347.269745
3126,3535,0.2637665,0.0556398,1624.489565,26.7925167,-371.1513215
3127,3536,0.2833455,0.047205300000000006,1624.489565,21.9211502,-395.032898
3128,3537,0.2585865,0.044127,1624.489565,17.049784199999998,-418.9144745
3129,3538,0.2763205,0.0385242,1624.489565,12.1784177,-442.796051
3130,3539,0.251004,0.0380933,1624.489565,7.30705118,-466.67762749999997
3131,3540,0.264625,0.02985455,1624.489565,2.43568468,-490.559204
3132,3541,0.2389765,0.028983099999999998,1599.3854350000001,90.120285,-60.690788250000004
3133,3542,0.24975399999999998,0.0241329,1599.3854350000001,85.2489166,-84.5723686
3134,3543,0.2156245,0.026440150000000003,1599.3854350000001,80.377552,-108.45394885000002
3135,3544,0.237724,0.017001600000000002,1599.3854350000001,75.50618739999999,-132.335529
3136,3545,0.204283,0.02649295,1599.3854350000001,70.634819,-156.2171095
3137,3546,0.2260925,0.02649295,1599.3854350000001,65.7634525,-180.098686
3138,3547,0.15290900000000002,0.018279449999999996,1599.3854350000001,60.892086,-203.9802625
3139,3548,0.1618885,0.0213516,1599.3854350000001,56.0207195,-227.86183949999997
3140,3549,0.15363,0.0202182,1599.3854350000001,51.14935299999999,-251.74341599999997
3141,3550,0.143626,0.020369949999999998,1599.3854350000001,46.277984599999996,-275.625
3142,3551,0.139237,0.021297,1599.3854350000001,41.406618099999996,-299.5065765
3143,3552,0.1346815,0.0214331,1599.3854350000001,36.535251599999995,-323.388153
3144,3553,0.130257,0.020641899999999998,1599.3854350000001,31.6638832,-347.269745
3145,3554,0.11618500000000001,0.0227322,1599.3854350000001,26.7925167,-371.1513215
3146,3555,0.1336415,0.018861549999999998,1599.3854350000001,21.9211502,-395.032898
3147,3556,0.1413565,0.0218423,1599.3854350000001,17.049784199999998,-418.9144745
3148,3557,0.13368950000000002,0.02049425,1599.3854350000001,12.1784177,-442.796051
3149,3558,0.123932,0.020711099999999996,1599.3854350000001,7.30705118,-466.67762749999997
3150,3559,0.12041450000000001,0.0208861,1599.3854350000001,2.43568468,-490.559204
3151,3560,0.1135235,0.0207131,1574.28125,90.120285,-60.690788250000004
3152,3561,0.108621,0.020741700000000002,1574.28125,85.2489166,-84.5723686
3153,3562,0.102605,0.020763900000000002,1574.28125,80.377552,-108.45394885000002
3154,3563,0.0988675,0.02111925,1574.28125,75.50618739999999,-132.335529
3155,3564,0.0942936,0.020162600000000003,1574.28125,70.634819,-156.2171095
3156,3565,0.084178,0.0219494,1574.28125,65.7634525,-180.098686
3157,3566,0.10263345,0.01935385,1574.28125,60.892086,-203.9802625
3158,3567,0.10728705000000001,0.0215745,1574.28125,56.0207195,-227.86183949999997
3159,3568,0.10027805000000001,0.0205939,1574.28125,51.14935299999999,-251.74341599999997
3160,3569,0.0917103,0.020719500000000002,1574.28125,46.277984599999996,-275.625
3161,3570,0.0879659,0.02086305,1574.28125,41.406618099999996,-299.5065765
3162,3571,0.08166799999999999,0.0207131,1574.28125,36.535251599999995,-323.388153
3163,3572,0.07679965,0.02076475,1574.28125,31.6638832,-347.269745
3164,3573,0.07155325,0.020755500000000003,1574.28125,26.7925167,-371.1513215
3165,3574,0.06734789999999999,0.021019549999999998,1574.28125,21.9211502,-395.032898
3166,3575,0.06284029999999999,0.02043035,1574.28125,17.049784199999998,-418.9144745
3167,3576,0.05645105,0.0214571,1574.28125,12.1784177,-442.796051
3168,3577,0.07237640000000001,0.019871899999999998,1574.28125,7.30705118,-466.67762749999997
3169,3578,0.073792,0.0212338,1574.28125,2.43568468,-490.559204
3170,3579,0.0676549,0.0207115,1549.177065,90.120285,-60.690788250000004
3171,3580,0.06058205,0.02067685,1549.177065,85.2489166,-84.5723686
3172,3581,0.05701595000000001,0.0208835,1549.177065,80.377552,-108.45394885000002
3173,3582,0.052037650000000005,0.0207675,1549.177065,75.50618739999999,-132.335529
3174,3583,0.04817365,0.020904700000000002,1549.177065,70.634819,-156.2171095
3175,3584,0.0445061,0.020965449999999997,1549.177065,65.7634525,-180.098686
3176,3585,0.0414428,0.02085165,1549.177065,60.892086,-203.9802625
3177,3586,0.03891265000000001,0.021030399999999998,1549.177065,56.0207195,-227.86183949999997
3178,3587,0.04773195,0.02030345,1549.177065,51.14935299999999,-251.74341599999997
3179,3588,0.046784599999999996,0.021029,1549.177065,46.277984599999996,-275.625
3180,3589,0.04262415,0.020770450000000003,1549.177065,41.406618099999996,-299.5065765
3181,3590,0.038987350000000004,0.02079135,1549.177065,36.535251599999995,-323.388153
3182,3591,0.03751395,0.020875650000000003,1549.177065,31.6638832,-347.269745
3183,3592,0.03627274999999999,0.0208809,1549.177065,26.7925167,-371.1513215
3184,3593,0.03657225,0.0209645,1549.177065,21.9211502,-395.032898
3185,3594,0.03707465,0.0207082,1549.177065,17.049784199999998,-418.9144745
3186,3595,0.1147975,0.025265450000000002,1549.177065,12.1784177,-442.796051
3187,3596,0.12198800000000001,0.028533549999999998,1549.177065,7.30705118,-466.67762749999997
3188,3597,0.1134665,0.027283549999999997,1549.177065,2.43568468,-490.559204
3189,3598,0.1066055,0.0267534,1524.0729350000001,90.120285,-60.690788250000004
3190,3599,0.1027005,0.026620150000000002,1524.0729350000001,85.2489166,-84.5723686
3191,3600,0.09965740000000001,0.02616785,1524.0729350000001,80.377552,-108.45394885000002
3192,3601,0.09744595,0.025513050000000002,1524.0729350000001,75.50618739999999,-132.335529
3193,3602,0.08963485,0.027239199999999998,1524.0729350000001,70.634819,-156.2171095
3194,3603,0.101194,0.025106550000000002,1524.0729350000001,65.7634525,-180.098686
3195,3604,0.1079114,0.0278797,1524.0729350000001,60.892086,-203.9802625
3196,3605,0.1007071,0.0269975,1524.0729350000001,56.0207195,-227.86183949999997
3197,3606,0.09488079999999999,0.02662225,1524.0729350000001,51.14935299999999,-251.74341599999997
3198,3607,0.09190045,0.02674405,1524.0729350000001,46.277984599999996,-275.625
3199,3608,0.08719075,0.0262653,1524.0729350000001,41.406618099999996,-299.5065765
3200,3609,0.0833666,0.0259168,1524.0729350000001,36.535251599999995,-323.388153
3201,3610,0.07942555000000001,0.025754600000000002,1524.0729350000001,31.6638832,-347.269745
3202,3611,0.0767859,0.0254287,1524.0729350000001,26.7925167,-371.1513215
3203,3612,0.07486915,0.02521295,1524.0729350000001,21.9211502,-395.032898
3204,3613,0.06911725,0.02601805,1524.0729350000001,17.049784199999998,-418.9144745
3205,3614,0.08129159999999999,0.0252519,1524.0729350000001,12.1784177,-442.796051
3206,3615,0.08585889999999999,0.02745455,1524.0729350000001,7.30705118,-466.67762749999997
3207,3616,0.07980294999999998,0.026747399999999998,1524.0729350000001,2.43568468,-490.559204
3208,3617,0.07491405000000001,0.026483950000000003,1498.96875,90.120285,-60.690788250000004
3209,3618,0.0721604,0.02661215,1498.96875,85.2489166,-84.5723686
3210,3619,0.0680938,0.0262653,1498.96875,80.377552,-108.45394885000002
3211,3620,0.06471684999999999,0.0260487,1498.96875,75.50618739999999,-132.335529
3212,3621,0.0614578,0.025892949999999998,1498.96875,70.634819,-156.2171095
3213,3622,0.0589259,0.025678799999999998,1498.96875,65.7634525,-180.098686
3214,3623,0.056999,0.02563805,1498.96875,60.892086,-203.9802625
3215,3624,0.053671500000000004,0.02587275,1498.96875,56.0207195,-227.86183949999997
3216,3625,0.06345615,0.02559775,1498.96875,51.14935299999999,-251.74341599999997
3217,3626,0.06583475,0.0272638,1498.96875,46.277984599999996,-275.625
3218,3627,0.06108175,0.026651300000000003,1498.96875,41.406618099999996,-299.5065765
3219,3628,0.05748595,0.026566899999999997,1498.96875,36.535251599999995,-323.388153
3220,3629,0.0551666,0.02657325,1498.96875,31.6638832,-347.269745
3221,3630,0.052401550000000005,0.026370199999999996,1498.96875,26.7925167,-371.1513215
3222,3631,0.05011115000000001,0.02622385,1498.96875,21.9211502,-395.032898
3223,3632,0.0485682,0.026203250000000004,1498.96875,17.049784199999998,-418.9144745
3224,3633,0.0473559,0.0262091,1498.96875,12.1784177,-442.796051
3225,3634,0.04610734999999999,0.026080200000000005,1498.96875,7.30705118,-466.67762749999997
3226,3635,0.05106695,0.0261626,1498.96875,2.43568468,-490.559204
3227,3636,0.051775400000000006,0.0271606,1473.864565,90.120285,-60.690788250000004
3228,3637,0.0490751,0.0267764,1473.864565,85.2489166,-84.5723686
3229,3638,0.047450650000000004,0.0266928,1473.864565,80.377552,-108.45394885000002
3230,3639,0.046660850000000004,0.0266807,1473.864565,75.50618739999999,-132.335529
3231,3640,0.046235399999999996,0.026675,1473.864565,70.634819,-156.2171095
3232,3641,0.04673215,0.026886,1473.864565,65.7634525,-180.098686
3233,3642,0.04620755,0.02634205,1473.864565,60.892086,-203.9802625
3234,3643,0.07776505,0.029581049999999998,1473.864565,56.0207195,-227.86183949999997
3235,3644,0.0844861,0.0335847,1473.864565,51.14935299999999,-251.74341599999997
3236,3645,0.07994925,0.03140659999999999,1473.864565,46.277984599999996,-275.625
3237,3646,0.07684055,0.0307986,1473.864565,41.406618099999996,-299.5065765
3238,3647,0.0751996,0.0307889,1473.864565,36.535251599999995,-323.388153
3239,3648,0.07147610000000001,0.029850849999999998,1473.864565,31.6638832,-347.269745
3240,3649,0.06817395000000001,0.02799745,1473.864565,26.7925167,-371.1513215
3241,3650,0.06742945,0.03080265,1473.864565,21.9211502,-395.032898
3242,3651,0.06844514999999998,0.0281279,1473.864565,17.049784199999998,-418.9144745
3243,3652,0.07493435,0.0318786,1473.864565,12.1784177,-442.796051
3244,3653,0.07158575,0.0298615,1473.864565,7.30705118,-466.67762749999997
3245,3654,0.07003124999999999,0.0299468,1473.864565,2.43568468,-490.559204
3246,3655,0.0699591,0.0300639,1448.7604350000001,90.120285,-60.690788250000004
3247,3656,0.0681629,0.029954849999999998,1448.7604350000001,85.2489166,-84.5723686
3248,3657,0.06639665,0.029754850000000003,1448.7604350000001,80.377552,-108.45394885000002
3249,3658,0.06411185,0.0296858,1448.7604350000001,75.50618739999999,-132.335529
3250,3659,0.0613382,0.0292766,1448.7604350000001,70.634819,-156.2171095
3251,3660,0.0580126,0.027703750000000003,1448.7604350000001,65.7634525,-180.098686
3252,3661,0.058656799999999995,0.030060250000000004,1448.7604350000001,60.892086,-203.9802625
3253,3662,0.06107214999999999,0.02843595,1448.7604350000001,56.0207195,-227.86183949999997
3254,3663,0.0657731,0.031213,1448.7604350000001,51.14935299999999,-251.74341599999997
3255,3664,0.0629528,0.02976825,1448.7604350000001,46.277984599999996,-275.625
3256,3665,0.0616608,0.0299052,1448.7604350000001,41.406618099999996,-299.5065765
3257,3666,0.061363549999999996,0.03001465,1448.7604350000001,36.535251599999995,-323.388153
3258,3667,0.05999045,0.029954849999999998,1448.7604350000001,31.6638832,-347.269745
3259,3668,0.0586078,0.0298041,1448.7604350000001,26.7925167,-371.1513215
3260,3669,0.0571097,0.0297274,1448.7604350000001,21.9211502,-395.032898
3261,3670,0.05509895000000001,0.02936985,1448.7604350000001,17.049784199999998,-418.9144745
3262,3671,0.05277565,0.028369250000000002,1448.7604350000001,12.1784177,-442.796051
3263,3672,0.05370295,0.0297522,1448.7604350000001,7.30705118,-466.67762749999997
3264,3673,0.056103150000000004,0.0291868,1448.7604350000001,2.43568468,-490.559204
3265,3674,0.05889245,0.03095155,1423.65625,90.120285,-60.690788250000004
3266,3675,0.05686355,0.030130700000000003,1423.65625,85.2489166,-84.5723686
3267,3676,0.055883749999999996,0.0302085,1423.65625,80.377552,-108.45394885000002
3268,3677,0.0555783,0.03037345,1423.65625,75.50618739999999,-132.335529
3269,3678,0.0544437,0.030173199999999997,1423.65625,70.634819,-156.2171095
3270,3679,0.05358155,0.03006925,1423.65625,65.7634525,-180.098686
3271,3680,0.05241775,0.0297691,1423.65625,60.892086,-203.9802625
3272,3681,0.051358350000000004,0.029341350000000002,1423.65625,56.0207195,-227.86183949999997
3273,3682,0.05167705,0.0297115,1423.65625,51.14935299999999,-251.74341599999997
3274,3683,0.053845550000000006,0.03013635,1423.65625,46.277984599999996,-275.625
3275,3684,0.055065600000000006,0.03104505,1423.65625,41.406618099999996,-299.5065765
3276,3685,0.0540285,0.03069945,1423.65625,36.535251599999995,-323.388153
3277,3686,0.053683850000000005,0.0307942,1423.65625,31.6638832,-347.269745
3278,3687,0.0534717,0.0307933,1423.65625,26.7925167,-371.1513215
3279,3688,0.0529358,0.030558000000000002,1423.65625,21.9211502,-395.032898
3280,3689,0.0529321,0.0305371,1423.65625,17.049784199999998,-418.9144745
3281,3690,0.052569450000000004,0.0302474,1423.65625,12.1784177,-442.796051
3282,3691,0.0495605,0.0282947,1423.65625,7.30705118,-466.67762749999997
3283,3692,0.0569186,0.031957,1423.65625,2.43568468,-490.559204
3284,3693,0.05603505,0.030915699999999997,1398.552065,90.120285,-60.690788250000004
3285,3694,0.057757499999999996,0.031495249999999995,1398.552065,85.248918525,-84.5723686
3286,3695,0.060403200000000004,0.0331239,1398.552065,80.377553925,-108.45394885000002
3287,3696,0.0607389,0.0337697,1398.552065,75.50618739999999,-132.335529
3288,3697,0.05816125,0.03295385,1398.552065,70.634819,-156.2171095
3289,3698,0.059885549999999996,0.034317150000000005,1398.552065,65.7634525,-180.098686
3290,3699,0.04635685,0.02668795,1398.552065,60.892086,-203.9802625
3291,3700,0.052174849999999995,0.02982385,1398.552065,56.0207195,-227.86183949999997
3292,3701,0.05117885,0.0289099,1398.552065,51.14935299999999,-251.74341599999997
3293,3702,0.0526402,0.0292777,1398.552065,46.277984599999996,-275.625
3294,3703,0.054905699999999995,0.03037845,1398.552065,41.406618099999996,-299.5065765
3295,3704,0.05599275,0.030825150000000003,1398.552065,36.535251599999995,-323.388153
3296,3705,0.05734755,0.0316993,1398.552065,31.663883674999997,-347.269745
3297,3706,0.05852915,0.032635750000000005,1398.552065,26.792517175,-371.1513215
3298,3707,0.059096850000000006,0.0334479,1398.552065,21.921150675,-395.032898
3299,3708,0.0572675,0.03287325,1398.552065,17.049784199999998,-418.9144745
3300,3709,0.0581664,0.0334691,1398.552065,12.178417465,-442.796051
3301,3710,0.0481543,0.027769000000000002,1398.552065,7.307050825000001,-466.67762749999997
3302,3711,0.05275335,0.030310000000000004,1398.552065,2.435684085,-490.559204
3303,3712,0.05181105,0.02963335,1198.5,-2.4356840876332786,-490.559204
3304,3713,0.0524994,0.02981305,1198.5,-7.307050825,-466.67762749999997
3305,3714,0.0540215,0.030588999999999998,1198.5,-12.178417465,-442.796051
3306,3715,0.05461355,0.030825150000000003,1198.5,-17.049784199999998,-418.9144745
3307,3716,0.05572275,0.031488699999999994,1198.5,-21.921150675,-395.032898
3308,3717,0.0565852,0.0321004,1198.5,-26.792517174999997,-371.1513215
3309,3718,0.057263,0.03272445,1198.5,-31.663883674999997,-347.26974500000006
3310,3719,0.056243,0.032387149999999996,1198.5,-36.535251599999995,-323.388153
3311,3720,0.05620555,0.03238805,1198.5,-41.406618099999996,-299.5065765
3312,3721,0.05082765,0.0293289,1198.5,-46.277984599999996,-275.625
3313,3722,0.05427585,0.03126535,1198.5,-51.14935299999999,-251.743416
3314,3723,0.05359030000000001,0.0308455,1198.5,-56.0207195,-227.86183949999997
3315,3724,0.05373115,0.03086555,1198.5,-60.89208599999999,-203.98026249999998
3316,3725,0.054643,0.03136605,1198.5,-65.7634525,-180.09868600000001
3317,3726,0.054904,0.0314933,1198.5,-70.634819,-156.2171095
3318,3727,0.0555162,0.03186365,1198.5,-75.50618739999999,-132.335529
3319,3728,0.0561899,0.032321800000000005,1198.5,-80.377553925,-108.45394885000002
3320,3729,0.0556111,0.032078449999999994,1198.5,-85.24891852500001,-84.5723686
3321,3730,0.05494689999999999,0.0316983,1198.5,-90.120285,-60.69078825
3322,3731,0.05376979999999999,0.03103215,1173.5,-2.43568468,-490.559204
3323,3732,0.05618095,0.0324101,1173.5,-7.307051179999999,-466.67762749999997
3324,3733,0.0558215,0.032213000000000006,1173.5,-12.1784177,-442.796051
3325,3734,0.05586485000000001,0.032235599999999996,1173.5,-17.049784199999998,-418.9144745
3326,3735,0.05611935,0.03238365,1173.5,-21.9211502,-395.032898
3327,3736,0.05626690000000001,0.03247245,1173.5,-26.7925167,-371.1513215
3328,3737,0.056300050000000004,0.03250075,1173.5,-31.6638832,-347.26974500000006
3329,3738,0.054710449999999994,0.03157965,1173.5,-36.535251599999995,-323.388153
3330,3739,0.0492522,0.01920185,1173.5,-41.406618099999996,-299.5065765
3331,3740,0.05394555000000001,0.02438595,1173.5,-46.277984599999996,-275.625
3332,3741,0.051988650000000004,0.026057449999999996,1173.5,-51.14935299999999,-251.743416
3333,3742,0.056044,0.029466,1173.5,-56.0207195,-227.86183949999997
3334,3743,0.059525049999999996,0.031791650000000005,1173.5,-60.89208599999999,-203.98026249999998
3335,3744,0.06481555,0.035542950000000004,1173.5,-65.7634525,-180.09868600000001
3336,3745,0.0719446,0.03969945,1173.5,-70.634819,-156.2171095
3337,3746,0.079979,0.04409235,1173.5,-75.50618739999999,-132.335529
3338,3747,0.04843655,0.0191831,1173.5,-80.377552,-108.45394885000002
3339,3748,0.0524108,0.023409350000000002,1173.5,-85.2489166,-84.5723686
3340,3749,0.04913719999999999,0.0241887,1173.5,-90.120285,-60.69078825
3341,3750,0.0504311,0.026304,1148.5,-2.43568468,-490.559204
3342,3751,0.0519047,0.02756355,1148.5,-7.307051179999999,-466.67762749999997
3343,3752,0.05348499999999999,0.0290298,1148.5,-12.1784177,-442.796051
3344,3753,0.056501749999999996,0.03093055,1148.5,-17.049784199999998,-418.9144745
3345,3754,0.05927145,0.0327235,1148.5,-21.9211502,-395.032898
3346,3755,0.0640521,0.035785950000000004,1148.5,-26.7925167,-371.1513215
3347,3756,0.0698669,0.0392836,1148.5,-31.6638832,-347.26974500000006
3348,3757,0.0765342,0.04288195,1148.5,-36.535251599999995,-323.388153
3349,3758,0.04804545,0.02296115,1148.5,-41.406618099999996,-299.5065765
3350,3759,0.05185205,0.02594005,1148.5,-46.277984599999996,-275.625
3351,3760,0.049284,0.02603755,1148.5,-51.14935299999999,-251.743416
3352,3761,0.049945500000000004,0.0273274,1148.5,-56.0207195,-227.86183949999997
3353,3762,0.0507657,0.028100299999999998,1148.5,-60.89208599999999,-203.98026249999998
3354,3763,0.05179249999999999,0.0290298,1148.5,-65.7634525,-180.09868600000001
3355,3764,0.0540018,0.0303938,1148.5,-70.634819,-156.2171095
3356,3765,0.0561702,0.0317001,1148.5,-75.50618739999999,-132.335529
3357,3766,0.05978765,0.03393715,1148.5,-80.377552,-108.45394885000002
3358,3767,0.064356,0.03675295,1148.5,-85.2489166,-84.5723686
3359,3768,0.06847085,0.03910385,1148.5,-90.120285,-60.69078825
3360,3769,0.050053150000000005,0.026980000000000004,1123.5,-2.43568468,-490.559204
3361,3770,0.052944000000000005,0.028783700000000002,1123.5,-7.307051179999999,-466.67762749999997
3362,3771,0.050685,0.028252,1123.5,-12.1784177,-442.796051
3363,3772,0.050973050000000006,0.028901949999999996,1123.5,-17.049784199999998,-418.9144745
3364,3773,0.051200999999999997,0.029201249999999998,1123.5,-21.9211502,-395.032898
3365,3774,0.0522562,0.02995095,1123.5,-26.7925167,-371.1513215
3366,3775,0.0539186,0.03086825,1123.5,-31.6638832,-347.26974500000006
3367,3776,0.05610564999999999,0.03214645,1123.5,-36.535251599999995,-323.388153
3368,3777,0.05989265,0.03440995000000001,1123.5,-41.406618099999996,-299.5065765
3369,3778,0.0613872,0.03540065,1123.5,-46.277984599999996,-275.625
3370,3779,0.053701700000000005,0.03051575,1123.5,-51.14935299999999,-251.743416
3371,3780,0.055199250000000005,0.031346650000000004,1123.5,-56.0207195,-227.86183949999997
3372,3781,0.05300645,0.030369049999999998,1123.5,-60.89208599999999,-203.98026249999998
3373,3782,0.0529468,0.030523099999999997,1123.5,-65.7634525,-180.09868600000001
3374,3783,0.05329105,0.03073455,1123.5,-70.634819,-156.2171095
3375,3784,0.05426665,0.0312314,1123.5,-75.50618739999999,-132.335529
3376,3785,0.0570321,0.0327388,1123.5,-80.377552,-108.45394885000002
3377,3786,0.05693465,0.0327785,1123.5,-85.2489166,-84.5723686
3378,3787,0.06772460000000001,0.00836377,1123.5,-90.120285,-60.69078825
3379,3788,0.06597934999999999,0.01441165,1098.5,-2.43568468,-490.559204
3380,3789,0.06637235,0.0211497,1098.5,-7.307051179999999,-466.67762749999997
3381,3790,0.0647001,0.0241803,1098.5,-12.1784177,-442.796051
3382,3791,0.0667172,0.02837945,1098.5,-17.049784199999998,-418.9144745
3383,3792,0.06814035000000002,0.0319692,1098.5,-21.9211502,-395.032898
3384,3793,0.0770951,0.0399791,1098.5,-26.7925167,-371.1513215
3385,3794,0.08347484999999999,0.045797649999999995,1098.5,-31.6638832,-347.26974500000006
3386,3795,0.06461934999999999,0.00968644,1098.5,-36.535251599999995,-323.388153
3387,3796,0.06246815,0.01413025,1098.5,-41.406618099999996,-299.5065765
3388,3797,0.0610592,0.0192661,1098.5,-46.277984599999996,-275.625
3389,3798,0.058426549999999994,0.0210344,1098.5,-51.14935299999999,-251.743416
3390,3799,0.05741085,0.02318895,1098.5,-56.0207195,-227.86183949999997
3391,3800,0.05744184999999999,0.025450800000000003,1098.5,-60.89208599999999,-203.98026249999998
3392,3801,0.05759639999999999,0.027428799999999996,1098.5,-65.7634525,-180.09868600000001
3393,3802,0.0605014,0.0306086,1098.5,-70.634819,-156.2171095
3394,3803,0.0626616,0.033148750000000005,1098.5,-75.50618739999999,-132.335529
3395,3804,0.07251194999999999,0.04012735,1098.5,-80.377552,-108.45394885000002
3396,3805,0.07736565000000001,0.04397005,1098.5,-85.2489166,-84.5723686
3397,3806,0.05679815,0.015152,1098.5,-90.120285,-60.69078825
3398,3807,0.055284049999999994,0.018274699999999998,1073.5,-2.43568468,-490.559204
3399,3808,0.053982,0.0214793,1073.5,-7.307051179999999,-466.67762749999997
3400,3809,0.05167605,0.022560699999999996,1073.5,-12.1784177,-442.796051
3401,3810,0.0506725,0.0238649,1073.5,-17.049784199999998,-418.9144745
3402,3811,0.0507204,0.025450800000000003,1073.5,-21.9211502,-395.032898
3403,3812,0.05081565,0.02675285,1073.5,-26.7925167,-371.1513215
3404,3813,0.053280850000000005,0.0290823,1073.5,-31.6638832,-347.26974500000006
3405,3814,0.055195799999999996,0.03093555,1073.5,-36.535251599999995,-323.388153
3406,3815,0.0630817,0.03598285,1073.5,-41.406618099999996,-299.5065765
3407,3816,0.06677025,0.0385045,1073.5,-46.277984599999996,-275.625
3408,3817,0.051760200000000006,0.02067895,1073.5,-51.14935299999999,-251.743416
3409,3818,0.05047445,0.0225666,1073.5,-56.0207195,-227.86183949999997
3410,3819,0.0489504,0.02395695,1073.5,-60.89208599999999,-203.98026249999998
3411,3820,0.047041200000000005,0.024473750000000002,1073.5,-65.7634525,-180.09868600000001
3412,3821,0.046614550000000005,0.025193,1073.5,-70.634819,-156.2171095
3413,3822,0.0466415,0.026100349999999998,1073.5,-75.50618739999999,-132.335529
3414,3823,0.04808265,0.0273774,1073.5,-80.377552,-108.45394885000002
3415,3824,0.0498673,0.028682000000000003,1073.5,-85.2489166,-84.5723686
3416,3825,0.055294750000000004,0.0317039,1073.5,-90.120285,-60.69078825
3417,3826,0.05827895,0.0331728,1048.5,-2.435684085,-490.559204
3418,3827,0.0503555,0.025379150000000003,1048.5,-7.307050825,-466.67762749999997
3419,3828,0.0487757,0.02603325,1048.5,-12.178417465,-442.796051
3420,3829,0.04684595,0.026067649999999998,1048.5,-17.049784199999998,-418.9144745
3421,3830,0.0456598,0.026088999999999998,1048.5,-21.921150675,-395.032898
3422,3831,0.04592325,0.026470749999999998,1048.5,-26.792517175,-371.1513215
3423,3832,0.047064449999999994,0.02705125,1048.5,-31.663883675,-347.26974500000006
3424,3833,0.0502382,0.0283575,1048.5,-36.535251599999995,-323.388153
3425,3834,0.0524504,0.02878225,1048.5,-41.406618099999996,-299.5065765
3426,3947,0.2233545,-0.0358429,1048.5,-46.277984599999996,-275.625
3427,3948,0.23630900000000002,-0.02745345,1048.5,-51.14935299999999,-251.743416
3428,3949,0.218253,-0.03005685,1048.5,-56.0207195,-227.86183949999997
3429,3950,0.2468285,-0.03035275,1048.5,-60.89208599999999,-203.98026249999998
3430,3951,0.2237605,-0.016962199999999997,1048.5,-65.7634525,-180.09868600000001
3431,3952,0.2510535,-0.009615430000000001,1048.5,-70.634819,-156.2171095
3432,3953,0.2473975,-0.021592200000000002,1048.5,-75.50618739999999,-132.335529
3433,3954,0.25998699999999997,-0.016760450000000003,1048.5,-80.377553925,-108.45394885000002
3434,3955,0.25653800000000004,-0.03162125,1048.5,-85.248918525,-84.5723686
3435,3956,0.2740055,-0.0258397,1048.5,-90.120285,-60.69078825
3436,3957,0.2607085,-0.04263905,2578.447875,100.0139923,-12.1875
3437,3958,0.2798395,-0.037950300000000006,2578.447875,95.04197690000001,-36.5625
3438,3959,0.241253,-0.0459478,2553.34375,100.0139923,-12.1875
3439,3960,0.2890445,-0.0450207,2553.34375,95.04197690000001,-36.5625
3440,3961,0.0470768,-0.026871199999999998,2528.239625,100.0139923,-12.1875
3441,3962,0.0476332,-0.0271597,2528.239625,95.04197690000001,-36.5625
3442,3963,0.0492422,-0.0273254,2503.135375,100.0139923,-12.1875
3443,3964,0.050412549999999993,-0.026671450000000003,2503.135375,95.04197690000001,-36.5625
3444,3965,0.04817780000000001,-0.0276905,2478.03125,100.0139923,-12.1875
3445,3966,0.048616049999999994,-0.0276115,2478.03125,95.04197690000001,-36.5625
3446,3967,0.05050795,-0.02777615,2452.927125,100.0139923,-12.1875
3447,3968,0.0533908,-0.0275773,2452.927125,95.04197690000001,-36.5625
3448,3969,0.057030849999999994,-0.027637949999999998,2427.822875,100.0139923,-12.1875
3449,3970,0.06143765,-0.0275275,2427.822875,95.04197690000001,-36.5625
3450,3971,0.0672294,-0.02767605,2402.71875,100.0139923,-12.1875
3451,3972,0.07157695,-0.027531850000000004,2402.71875,95.04197690000001,-36.5625
3452,3973,0.07992360000000001,-0.02753585,2377.614625,100.0139923,-12.1875
3453,3974,0.0871894,-0.0281907,2377.614625,95.04197690000001,-36.5625
3454,3975,0.08603425,-0.02654415,2352.510375,100.0139923,-12.1875
3455,3976,0.06631925,-0.0283662,2352.510375,95.04197690000001,-36.5625
3456,3977,0.0736069,-0.0275858,2327.40625,100.0139923,-12.1875
3457,3978,0.07926885,-0.02795315,2327.40625,95.04197690000001,-36.5625
3458,3979,0.08485965000000001,-0.027871,2302.302125,100.0139923,-12.1875
3459,3980,0.09129854999999999,-0.0275597,2302.302125,95.04197690000001,-36.5625
3460,3981,0.09875665,-0.0277798,2277.197875,100.0139923,-12.1875
3461,3982,0.103663,-0.0273672,2277.197875,95.04197690000001,-36.5625
3462,3983,0.11456,-0.0274272,2252.09375,100.0139923,-12.1875
3463,3984,0.123212,-0.028309550000000003,2252.09375,95.04197690000001,-36.5625
3464,3985,0.119002,-0.0259739,2226.989625,100.0139923,-12.1875
3465,3986,0.0971092,-0.02896435,2226.989625,95.04197690000001,-36.5625
3466,3987,0.10907249999999999,-0.02740485,2201.885375,100.0139923,-12.1875
3467,3988,0.115282,-0.028084650000000003,2201.885375,95.04197690000001,-36.5625
3468,3989,0.120474,-0.02799695,2176.78125,100.0139923,-12.1875
3469,3990,0.128031,-0.02750465,2176.78125,95.04197690000001,-36.5625
3470,3991,0.13608150000000002,-0.027834849999999998,2151.677125,100.0139923,-12.1875
3471,3992,0.140824,-0.02724125,2151.677125,95.04197690000001,-36.5625
3472,3993,0.1534295,-0.0272957,2126.572875,100.0139923,-12.1875
3473,3994,0.162842,-0.028490500000000002,2126.572875,95.04197690000001,-36.5625
3474,3995,0.1550875,-0.025375750000000002,2101.46875,100.0139923,-12.1875
3475,3996,0.06103979999999999,-0.03508485,2101.46875,95.04197690000001,-36.5625
3476,3997,0.06200135,-0.035674149999999995,2076.364625,100.0139923,-12.1875
3477,3998,0.0628051,-0.035757399999999995,2076.364625,95.04197690000001,-36.5625
3478,3999,0.06222785,-0.034884399999999996,2051.260435,100.0139923,-12.1875
3479,4000,0.05928725,-0.034174399999999994,2051.260435,95.04197690000001,-36.5625
3480,4001,0.0605532,-0.034833750000000004,2026.15625,100.0139923,-12.1875
3481,4002,0.06076329999999999,-0.034592849999999994,2026.15625,95.04197690000001,-36.5625
3482,4003,0.06201375,-0.03467725000000001,2001.052065,100.0139923,-12.1875
3483,4004,0.06389224999999998,-0.03485945,2001.052065,95.04197690000001,-36.5625
3484,4005,0.06614534999999999,-0.034929600000000005,1975.9479350000001,100.0139923,-12.1875
3485,4006,0.06919935,-0.035161899999999996,1975.9479350000001,95.04197690000001,-36.5625
3486,4007,0.07153145000000001,-0.034984749999999995,1950.84375,100.0139923,-12.1875
3487,4008,0.07558139999999999,-0.03516280000000001,1950.84375,95.04197690000001,-36.5625
3488,4009,0.0808508,-0.035779649999999996,1925.739565,100.0139923,-12.1875
3489,4010,0.07813565,-0.03383175,1925.739565,95.04197690000001,-36.5625
3490,4011,0.06777085,-0.034861149999999994,1900.6354350000001,100.0139923,-12.1875
3491,4012,0.07098125,-0.034503099999999995,1900.6354350000001,95.04197690000001,-36.5625
3492,4013,0.07370355,-0.03470045,1875.53125,100.0139923,-12.1875
3493,4014,0.07644865,-0.034748749999999995,1875.53125,95.04197690000001,-36.5625
3494,4015,0.08067585,-0.0349937,1850.427065,100.0139923,-12.1875
3495,4016,0.08536379999999999,-0.0353915,1850.427065,95.04197690000001,-36.5625
3496,4017,0.08908189999999999,-0.035436300000000004,1825.3229350000001,100.0139923,-12.1875
3497,4018,0.0951461,-0.03560475,1825.3229350000001,95.04197690000001,-36.5625
3498,4019,0.1026267,-0.036592650000000004,1800.21875,100.0139923,-12.1875
3499,4020,0.09789119999999998,-0.033860100000000004,1800.21875,95.04197690000001,-36.5625
3500,4021,0.08399385,-0.0351114,1775.114565,100.0139923,-12.1875
3501,4022,0.08995895000000001,-0.03398065,1775.114565,95.04197690000001,-36.5625
3502,4023,0.09310445,-0.03447435,1750.0104350000001,100.0139923,-12.1875
3503,4024,0.09602469999999999,-0.03457685,1750.0104350000001,95.04197690000001,-36.5625
3504,4025,0.1013885,-0.0348942,1724.90625,100.0139923,-12.1875
3505,4026,0.106992,-0.03549095,1724.90625,95.04197690000001,-36.5625
3506,4027,0.111164,-0.035608150000000005,1699.802065,100.0139923,-12.1875
3507,4028,0.118698,-0.035830799999999996,1699.802065,95.04197690000001,-36.5625
3508,4029,0.1277105,-0.03711505,1674.6979350000001,100.0139923,-12.1875
3509,4030,0.1205065,-0.03360985,1674.6979350000001,95.04197690000001,-36.5625
3510,4031,0.07151405,-0.041221049999999995,1649.59375,100.0139923,-12.1875
3511,4032,0.07202254999999999,-0.041539950000000006,1649.59375,95.04197690000001,-36.5625
3512,4033,0.0724792,-0.0417163,1624.489565,100.0139923,-12.1875
3513,4034,0.07176135,-0.04107835,1624.489565,95.04197690000001,-36.5625
3514,4035,0.06770835,-0.039074849999999994,1599.3854350000001,100.0139923,-12.1875
3515,4036,0.0674299,-0.0388871,1599.3854350000001,95.04197690000001,-36.5625
3516,4037,0.06819054999999999,-0.03923600000000001,1574.28125,100.0139923,-12.1875
3517,4038,0.06929705,-0.03961625,1574.28125,95.04197690000001,-36.5625
3518,4039,0.07000100000000001,-0.0397401,1549.177065,100.0139923,-12.1875
3519,4040,0.07085575,-0.03986775,1549.177065,95.04197690000001,-36.5625
3520,4041,0.07165084999999999,-0.03986595,1524.0729350000001,100.0139923,-12.1875
3521,4042,0.0719976,-0.0397294,1524.0729350000001,95.04197690000001,-36.5625
3522,4043,0.07284750000000001,-0.0394885,1498.96875,100.0139923,-12.1875
3523,4044,0.07505655,-0.040411550000000004,1498.96875,95.04197690000001,-36.5625
3524,4045,0.07191845,-0.0383822,1473.864565,100.0139923,-12.1875
3525,4046,0.0706242,-0.039715349999999996,1473.864565,95.04197690000001,-36.5625
3526,4047,0.06982685000000001,-0.0384823,1448.7604350000001,100.0139923,-12.1875
3527,4048,0.07221910000000001,-0.0394516,1448.7604350000001,95.04197690000001,-36.5625
3528,4049,0.0744874,-0.039940199999999995,1423.65625,100.0139923,-12.1875
3529,4050,0.07622165,-0.04007075,1423.65625,95.04197690000001,-36.5625
3530,4051,0.07837195,-0.04048175,1398.552065,100.0139923,-12.1875
3531,4052,0.0788933,-0.0402464,1398.552065,95.04197690000001,-36.5625
3532,4053,0.08077885,-0.040257299999999996,1198.5,-95.0419769,-36.5625
3533,4054,0.084146,-0.04174795,1198.5,-100.01399229999998,-12.1875
3534,4055,0.07906755,-0.03866119999999999,1173.5,-95.0419769,-36.5625
3535,4056,0.07560865,-0.03997895,1173.5,-100.01399229999998,-12.1875
3536,4057,0.07492825,-0.03766585,1148.5,-95.0419769,-36.5625
3537,4058,0.07854264999999999,-0.03925015,1148.5,-100.01399229999998,-12.1875
3538,4059,0.08173454999999999,-0.03986365,1123.5,-95.0419769,-36.5625
3539,4060,0.08430845000000001,-0.039968000000000004,1123.5,-100.01399229999998,-12.1875
3540,4061,0.0872213,-0.04058445,1098.5,-95.0419769,-36.5625
3541,4062,0.08771635,-0.040322949999999996,1098.5,-100.01399229999998,-12.1875
3542,4063,0.09018915,-0.0404587,1073.5,-95.0419769,-36.5625
3543,4064,0.09435915,-0.0425644,1073.5,-100.01399229999998,-12.1875
3544,4065,0.08726575,-0.038397650000000005,1048.5,-95.0419769,-36.5625
3545,4066,0.07567925,-0.04368475,1048.5,-100.01399229999998,-12.1875
3546,4067,0.0778007,-0.044914499999999996,1398.552065,13.2644758,100.75370025000001
3547,4068,0.07815295,-0.045102149999999994,1423.65625,13.2644758,100.75370025000001
3548,4069,0.07550175,-0.04356525,1448.7604350000001,13.2644758,100.75370025000001
3549,4070,0.0714561,-0.0412289,1473.864565,13.2644758,100.75370025000001
3550,4071,0.07318854999999999,-0.0422401,1498.96875,13.2644758,100.75370025000001
3551,4072,0.07342845,-0.04230395,1524.0729350000001,13.2644758,100.75370025000001
3552,4073,0.07267955000000001,-0.0418202,1549.177065,13.2644758,100.75370025000001
3553,4074,0.0722639,-0.0415615,1574.28125,13.2644758,100.75370025000001
3554,4075,0.07138045,-0.041064050000000005,1599.3854350000001,13.2644758,100.75370025000001
3555,4076,0.07137615,-0.04109805,1624.489565,13.2644758,100.75370025000001
3556,4077,0.0705156,-0.040621000000000004,1649.59375,13.2644758,100.75370025000001
3557,4078,0.0706176,-0.04071965,1674.6979350000001,13.2644758,100.75370025000001
3558,4079,0.07141655,-0.04118655,1699.802065,13.2644758,100.75370025000001
3559,4080,0.06726764999999998,-0.038827099999999996,1724.90625,13.2644758,100.75370025000001
3560,4081,0.07449215,-0.0429467,1750.0104350000001,13.2644758,100.75370025000001
3561,4082,0.07448545,-0.04290845,1775.114565,13.2644758,100.75370025000001
3562,4083,0.07589225,-0.043487250000000005,1800.21875,13.2644758,100.75370025000001
3563,4084,0.0749459,-0.042738849999999995,1825.3229350000001,13.2644758,100.75370025000001
3564,4085,0.0737397,-0.041976,1850.427065,13.2644758,100.75370025000001
3565,4086,0.0732325,-0.04172305,1875.53125,13.2644758,100.75370025000001
3566,4087,0.0714407,-0.0407593,1900.6354350000001,13.2644758,100.75370025000001
3567,4088,0.07085355000000002,-0.0406068,1925.739565,13.2644758,100.75370025000001
3568,4089,0.0719707,-0.04136245,1950.84375,13.2644758,100.75370025000001
3569,4090,0.06634065,-0.038255700000000004,1975.9479350000001,13.2644758,100.75370025000001
3570,4091,0.07662435000000001,-0.044119450000000004,2001.052065,13.2644758,100.75370025000001
3571,4092,0.07539354999999999,-0.04329495,2026.15625,13.2644758,100.75370025000001
3572,4093,0.07778455,-0.044207399999999994,2051.260435,13.2644758,100.75370025000001
3573,4094,0.07686235,-0.04323375,2076.364625,13.2644758,100.75370025000001
3574,4095,0.075091,-0.04203925,2101.46875,13.2644758,100.75370025000001
3575,4096,0.0743426,-0.04165980000000001,2126.572875,13.2644758,100.75370025000001
3576,4097,0.07168084999999999,-0.04026439999999999,2151.677125,13.2644758,100.75370025000001
3577,4098,0.0702933,-0.039886649999999996,2176.78125,13.2644758,100.75370025000001
3578,4099,0.07164504999999999,-0.04097595,2201.885375,13.2644758,100.75370025000001
3579,4100,0.06440205,-0.037082949999999996,2226.989625,13.2644758,100.75370025000001
3580,4101,0.07657729999999999,-0.0441964,2252.09375,13.2644758,100.75370025000001
3581,4102,0.07684094999999999,-0.0443336,2277.197875,13.2644758,100.75370025000001
3582,4103,0.07665015,-0.04418464999999999,2302.302125,13.2644758,100.75370025000001
3583,4104,0.07529034999999999,-0.04339030000000001,2327.40625,13.2644758,100.75370025000001
3584,4105,0.07890060000000002,-0.0455035,2352.510375,13.2644758,100.75370025000001
3585,4106,0.0776761,-0.04455215,2377.614625,13.2644758,100.75370025000001
3586,4107,0.0734089,-0.04202235,2402.71875,13.2644758,100.75370025000001
3587,4108,0.07054895,-0.0404581,2427.822875,13.2644758,100.75370025000001
3588,4109,0.0688357,-0.03956735,2452.927125,13.2644758,100.75370025000001
3589,4110,0.06728869999999999,-0.0386645,2478.03125,13.2644758,100.75370025000001
3590,4111,0.06707525,-0.038353399999999996,2503.135375,13.2644758,100.75370025000001
3591,4112,0.06716215,-0.03814485000000001,2528.239625,13.2644758,100.75370025000001
3592,4113,0.067706,-0.03784875,2553.34375,13.2644758,100.75370025000001
3593,4114,0.07080245,-0.0388652,2578.447875,13.2644758,100.75370025000001
3594,4115,0.0675534,-0.0370256,1398.552065,38.8894758,93.88750075
3595,4116,0.08692755,-0.04987955,1423.65625,38.8894758,93.88750075
3596,4117,0.08315919999999999,-0.04766405,1448.7604350000001,38.8894758,93.88750075
3597,4118,0.07733275,-0.044121900000000006,1473.864565,38.8894758,93.88750075
3598,4119,0.07354454999999999,-0.0417719,1498.96875,38.8894758,93.88750075
3599,4120,0.07072445,-0.040138599999999997,1524.0729350000001,38.8894758,93.88750075
3600,4121,0.0686342,-0.03864015,1549.177065,38.8894758,93.88750075
3601,4122,0.06766705,-0.0378103,1574.28125,38.8894758,93.88750075
3602,4123,0.06655944999999999,-0.0363051,1599.3854350000001,38.8894758,93.88750075
3603,4124,0.0694362,-0.03641145,1624.489565,38.8894758,93.88750075
3604,4125,0.0647133,-0.03306725,1649.59375,38.8894758,93.88750075
3605,4126,0.09560945000000001,-0.054082599999999995,1674.6979350000001,38.8894758,93.88750075
3606,4127,0.08904134999999999,-0.05047725,1699.802065,38.8894758,93.88750075
3607,4128,0.08174985,-0.04607605000000001,1724.90625,38.8894758,93.88750075
3608,4129,0.07663885000000001,-0.0427623,1750.0104350000001,38.8894758,93.88750075
3609,4130,0.0729419,-0.04051315,1775.114565,38.8894758,93.88750075
3610,4131,0.06987950000000001,-0.038265549999999995,1800.21875,38.8894758,93.88750075
3611,4132,0.0680335,-0.0368199,1825.3229350000001,38.8894758,93.88750075
3612,4133,0.06596640000000001,-0.034350900000000004,1850.427065,38.8894758,93.88750075
3613,4134,0.0691803,-0.0335983,1875.53125,38.8894758,93.88750075
3614,4135,0.0638049,-0.0288642,1900.6354350000001,38.8894758,93.88750075
3615,4136,0.0659691,-0.0372488,1925.739565,38.8894758,93.88750075
3616,4137,0.06417344999999999,-0.036943100000000006,1950.84375,38.8894758,93.88750075
3617,4138,0.0635957,-0.0363401,1975.9479350000001,38.8894758,93.88750075
3618,4139,0.06519975,-0.0359945,2001.052065,38.8894758,93.88750075
3619,4140,0.07492565000000001,-0.041784299999999996,2026.15625,38.8894758,93.88750075
3620,4141,0.0718541,-0.0407313,2051.260435,38.8894758,93.88750075
3621,4142,0.0650245,-0.03736685,2076.364625,38.8894758,93.88750075
3622,4143,0.06266895,-0.0360865,2101.46875,38.8894758,93.88750075
3623,4144,0.06019605,-0.03445525,2126.572875,38.8894758,93.88750075
3624,4145,0.06015495,-0.03387715,2151.677125,38.8894758,93.88750075
3625,4146,0.0600738,-0.032922999999999994,2176.78125,38.8894758,93.88750075
3626,4147,0.0616636,-0.03264375,2201.885375,38.8894758,93.88750075
3627,4148,0.0642235,-0.0323554,2226.989625,38.8894758,93.88750075
3628,4149,0.0670878,-0.0313774,2252.09375,38.8894758,93.88750075
3629,4150,0.06888095,-0.0295141,2277.197875,38.8894758,93.88750075
3630,4151,0.08370895,-0.048256,2302.302125,38.8894758,93.88750075
3631,4152,0.07896265,-0.0452365,2327.40625,38.8894758,93.88750075
3632,4153,0.07027140000000001,-0.0397631,2352.510375,38.8894758,93.88750075
3633,4154,0.0677895,-0.03741270000000001,2377.614625,38.8894758,93.88750075
3634,4155,0.0655442,-0.03504755,2402.71875,38.8894758,93.88750075
3635,4156,0.06544215,-0.033211199999999996,2427.822875,38.8894758,93.88750075
3636,4157,0.06575914999999999,-0.0315927,2452.927125,38.8894758,93.88750075
3637,4158,0.06836605000000001,-0.030247,2478.03125,38.8894758,93.88750075
3638,4159,0.0696573,-0.026893300000000002,2503.135375,38.8894758,93.88750075
3639,4160,0.0712925,-0.02329815,2528.239625,38.8894758,93.88750075
3640,4161,0.0951638,-0.0544955,2553.34375,38.8894758,93.88750075
3641,4162,0.08899565000000001,-0.04982235,2578.447875,38.8894758,93.88750075
3642,4163,0.07811085000000001,-0.042142200000000005,1398.552065,61.86422350000001,80.623024
3643,4164,0.0753346,-0.03886775,1423.65625,61.86422350000001,80.623024
3644,4165,0.07264514999999999,-0.03550665,1448.7604350000001,61.86422350000001,80.623024
3645,4166,0.07250704999999999,-0.0327521,1473.864565,61.86422350000001,80.623024
3646,4167,0.07258919999999999,-0.030137650000000002,1498.96875,61.86422350000001,80.623024
3647,4168,0.07550085000000001,-0.0278679,1524.0729350000001,61.86422350000001,80.623024
3648,4169,0.076458,-0.0223075,1549.177065,61.86422350000001,80.623024
3649,4170,0.07852424999999999,-0.017058649999999998,1574.28125,61.86422350000001,80.623024
3650,4171,0.09028485,-0.0232917,1599.3854350000001,61.86422350000001,80.623024
3651,4172,0.08306005,-0.0229655,1624.489565,61.86422350000001,80.623024
3652,4173,0.09444445000000001,-0.0315219,1649.59375,61.86422350000001,80.623024
3653,4174,0.08931035000000001,-0.026715000000000003,1674.6979350000001,61.86422350000001,80.623024
3654,4175,0.0975055,-0.03778025,1699.802065,61.86422350000001,80.623024
3655,4176,0.09471774999999999,-0.0334975,1724.90625,61.86422350000001,80.623024
3656,4177,0.101383,-0.043872,1750.0104350000001,61.86422350000001,80.623024
3657,4178,0.0976804,-0.038424650000000005,1775.114565,61.86422350000001,80.623024
3658,4179,0.103051,-0.0481402,1800.21875,61.86422350000001,80.623024
3659,4180,0.101008,-0.0431548,1825.3229350000001,61.86422350000001,80.623024
3660,4181,0.10606750000000001,-0.05215435,1850.427065,61.86422350000001,80.623024
3661,4182,0.103236,-0.04721055,1875.53125,61.86422350000001,80.623024
3662,4183,0.109136,-0.056369699999999995,1900.6354350000001,61.86422350000001,80.623024
3663,4184,0.10505400000000001,-0.050448900000000005,1925.739565,61.86422350000001,80.623024
3664,4185,0.11165950000000001,-0.059630249999999996,1950.84375,61.86422350000001,80.623024
3665,4186,0.1067355,-0.0537875,1975.9479350000001,61.86422350000001,80.623024
3666,4187,0.115087,-0.0637578,2001.052065,61.86422350000001,80.623024
3667,4188,0.1043975,-0.054011,2026.15625,61.86422350000001,80.623024
3668,4189,0.10920149999999999,-0.06190785,2051.260435,61.86422350000001,80.623024
3669,4190,0.10949249999999999,-0.057431350000000006,2076.364625,61.86422350000001,80.623024
3670,4191,0.0822735,-0.029727700000000003,2101.46875,61.86422350000001,80.623024
3671,4192,0.0727981,-0.0287098,2126.572875,61.86422350000001,80.623024
3672,4193,0.0870071,-0.03689455,2151.677125,61.86422350000001,80.623024
3673,4194,0.07786794999999999,-0.031264349999999996,2176.78125,61.86422350000001,80.623024
3674,4195,0.08934005,-0.0414219,2201.885375,61.86422350000001,80.623024
3675,4196,0.08348105,-0.03687915,2226.989625,61.86422350000001,80.623024
3676,4197,0.0928668,-0.045954949999999994,2252.09375,61.86422350000001,80.623024
3677,4198,0.08597084999999999,-0.04042865,2277.197875,61.86422350000001,80.623024
3678,4199,0.09404689999999999,-0.04880925,2302.302125,61.86422350000001,80.623024
3679,4200,0.08882789999999999,-0.04383075,2327.40625,61.86422350000001,80.623024
3680,4201,0.0962539,-0.05148535,2352.510375,61.86422350000001,80.623024
3681,4202,0.09052015,-0.04653465,2377.614625,61.86422350000001,80.623024
3682,4203,0.09855,-0.05428675,2402.71875,61.86422350000001,80.623024
3683,4204,0.09157780000000001,-0.04844485,2427.822875,61.86422350000001,80.623024
3684,4205,0.0997666,-0.055988550000000005,2452.927125,61.86422350000001,80.623024
3685,4206,0.0926426,-0.050405849999999995,2478.03125,61.86422350000001,80.623024
3686,4207,0.102242,-0.05838515,2503.135375,61.86422350000001,80.623024
3687,4208,0.08950834999999999,-0.049461649999999996,2528.239625,61.86422350000001,80.623024
3688,4209,0.09637625,-0.05547185,2553.34375,61.86422350000001,80.623024
3689,4210,0.0932427,-0.051687050000000005,2578.447875,61.86422350000001,80.623024
3690,4211,0.08007745,-0.036572499999999994,1398.552065,80.623024,61.8642235
3691,4212,0.06950895000000001,-0.03496715,1423.65625,80.623024,61.8642235
3692,4213,0.08533075000000001,-0.04274085,1448.7604350000001,80.623024,61.8642235
3693,4214,0.07262935000000001,-0.03624935,1473.864565,80.623024,61.8642235
3694,4215,0.08670865,-0.0455791,1498.96875,80.623024,61.8642235
3695,4216,0.07828650000000001,-0.04084995,1524.0729350000001,80.623024,61.8642235
3696,4217,0.0892313,-0.0485331,1549.177065,80.623024,61.8642235
3697,4218,0.0798992,-0.042887350000000005,1574.28125,80.623024,61.8642235
3698,4219,0.08958284999999999,-0.049855399999999994,1599.3854350000001,80.623024,61.8642235
3699,4220,0.08227224999999999,-0.04520755,1624.489565,80.623024,61.8642235
3700,4221,0.0908734,-0.05137989999999999,1649.59375,80.623024,61.8642235
3701,4222,0.08269155,-0.046204800000000004,1674.6979350000001,80.623024,61.8642235
3702,4223,0.09126735,-0.0521698,1699.802065,80.623024,61.8642235
3703,4224,0.08388004999999998,-0.0474898,1724.90625,80.623024,61.8642235
3704,4225,0.09248635,-0.053227449999999996,1750.0104350000001,80.623024,61.8642235
3705,4226,0.08333225,-0.047627749999999996,1775.114565,80.623024,61.8642235
3706,4227,0.09226390000000001,-0.0532194,1800.21875,80.623024,61.8642235
3707,4228,0.08330515,-0.0479116,1825.3229350000001,80.623024,61.8642235
3708,4229,0.0931194,-0.0534576,1850.427065,80.623024,61.8642235
3709,4230,0.0790851,-0.045617200000000004,1875.53125,80.623024,61.8642235
3710,4231,0.08749779999999999,-0.049406849999999995,1900.6354350000001,80.623024,61.8642235
3711,4232,0.08035985,-0.04632155,1925.739565,80.623024,61.8642235
3712,4233,0.07122814999999999,-0.0396244,1950.84375,80.623024,61.8642235
3713,4234,0.062241050000000006,-0.0357055,1975.9479350000001,80.623024,61.8642235
3714,4235,0.07515464999999999,-0.04304575,2001.052065,80.623024,61.8642235
3715,4236,0.062046550000000006,-0.03564175,2026.15625,80.623024,61.8642235
3716,4237,0.07543405,-0.04351579999999999,2051.260435,80.623024,61.8642235
3717,4238,0.062303300000000006,-0.0359311,2076.364625,80.623024,61.8642235
3718,4239,0.07172329999999999,-0.04078975,2101.46875,80.623024,61.8642235
3719,4240,0.06346105,-0.036578,2126.572875,80.623024,61.8642235
3720,4241,0.21581599999999998,0.008344435,2151.677125,80.623024,61.8642235
3721,4242,0.218018,-0.02981325,2176.78125,80.623024,61.8642235
3722,4243,0.192881,-0.0332479,2201.885375,80.623024,61.8642235
3723,4244,0.17389,-0.03602845,2226.989625,80.623024,61.8642235
3724,4245,0.152237,-0.0363408,2252.09375,80.623024,61.8642235
3725,4246,0.1315045,-0.0365448,2277.197875,80.623024,61.8642235
3726,4247,0.1115305,-0.036572,2302.302125,80.623024,61.8642235
3727,4248,0.09320400000000001,-0.036587049999999996,2327.40625,80.623024,61.8642235
3728,4249,0.07766129999999999,-0.03658935000000001,2352.510375,80.623024,61.8642235
3729,4250,0.06690299999999999,-0.03659045,2377.614625,80.623024,61.8642235
3730,4251,0.0634116,-0.03659065,2402.71875,80.623024,61.8642235
3731,4252,0.06831195000000001,-0.036590700000000004,2427.822875,80.623024,61.8642235
3732,4253,0.080079,-0.0365905,2452.927125,80.623024,61.8642235
3733,4254,0.0962298,-0.036590250000000005,2478.03125,80.623024,61.8642235
3734,4255,0.1149305,-0.03658725,2503.135375,80.623024,61.8642235
3735,4256,0.13514949999999998,-0.0365851,2528.239625,80.623024,61.8642235
3736,4257,0.15624149999999998,-0.036542649999999996,2553.34375,80.623024,61.8642235
3737,4258,0.178085,-0.03652745,2578.447875,80.623024,61.8642235
3738,4259,0.19944099999999998,-0.035931199999999996,1398.552065,93.88750075,38.8894758
3739,4260,0.2626785,-0.0510063,1423.65625,93.88750075,38.8894758
3740,4261,0.21485149999999997,-0.0398602,1448.7604350000001,93.88750075,38.8894758
3741,4262,0.19312050000000003,-0.0295647,1473.864565,93.88750075,38.8894758
3742,4263,0.169145,-0.028521650000000003,1498.96875,93.88750075,38.8894758
3743,4264,0.14685499999999999,-0.027769250000000002,1524.0729350000001,93.88750075,38.8894758
3744,4265,0.12481,-0.02767675,1549.177065,93.88750075,38.8894758
3745,4266,0.10353100000000001,-0.0276213,1574.28125,93.88750075,38.8894758
3746,4267,0.08342830000000001,-0.0276134,1599.3854350000001,93.88750075,38.8894758
3747,4268,0.06561634999999999,-0.027609250000000002,1624.489565,93.88750075,38.8894758
3748,4269,0.052455650000000006,-0.02760865,1649.59375,93.88750075,38.8894758
3749,4270,0.047934649999999995,-0.02760835,1674.6979350000001,93.88750075,38.8894758
3750,4271,0.05424085,-0.027608300000000002,1699.802065,93.88750075,38.8894758
3751,4272,0.0684506,-0.027608399999999998,1724.90625,93.88750075,38.8894758
3752,4273,0.08679405,-0.0276092,1750.0104350000001,93.88750075,38.8894758
3753,4274,0.10715,-0.02760995,1775.114565,93.88750075,38.8894758
3754,4275,0.1286025,-0.0276213,1800.21875,93.88750075,38.8894758
3755,4276,0.15069100000000002,-0.02762735,1825.3229350000001,93.88750075,38.8894758
3756,4277,0.17312450000000001,-0.027786199999999997,1850.427065,93.88750075,38.8894758
3757,4278,0.1961815,-0.027815,1875.53125,93.88750075,38.8894758
3758,4279,0.234835,0.01400895,1900.6354350000001,93.88750075,38.8894758
3759,4280,0.200281,0.004609675,1925.739565,93.88750075,38.8894758
3760,4281,0.19317800000000002,-0.020215300000000002,1950.84375,93.88750075,38.8894758
3761,4282,0.174619,-0.0263212,1975.9479350000001,93.88750075,38.8894758
3762,4283,0.162976,-0.03923225,2001.052065,93.88750075,38.8894758
3763,4284,0.14174,-0.04139395,2026.15625,93.88750075,38.8894758
3764,4285,0.127625,-0.0468778,2051.260435,93.88750075,38.8894758
3765,4286,0.109924,-0.047735799999999995,2076.364625,93.88750075,38.8894758
3766,4287,0.09881535,-0.0500776,2101.46875,93.88750075,38.8894758
3767,4288,0.08965234999999999,-0.05027325,2126.572875,93.88750075,38.8894758
3768,4289,0.0887011,-0.051150249999999994,2151.677125,93.88750075,38.8894758
3769,4290,0.09296874999999999,-0.050760150000000004,2176.78125,93.88750075,38.8894758
3770,4291,0.10430800000000001,-0.050781999999999994,2201.885375,93.88750075,38.8894758
3771,4292,0.11842749999999999,-0.04951704999999999,2226.989625,93.88750075,38.8894758
3772,4293,0.1366575,-0.048730300000000004,2252.09375,93.88750075,38.8894758
3773,4294,0.1542535,-0.04571935,2277.197875,93.88750075,38.8894758
3774,4295,0.1749925,-0.043593,2302.302125,93.88750075,38.8894758
3775,4296,0.1919525,-0.03668235,2327.40625,93.88750075,38.8894758
3776,4297,0.211374,-0.03114425,2352.510375,93.88750075,38.8894758
3777,4298,0.235435,-0.01212415,2377.614625,93.88750075,38.8894758
3778,4299,0.2386875,-0.0112347,2402.71875,93.88750075,38.8894758
3779,4300,0.208644,-0.018619800000000002,2427.822875,93.88750075,38.8894758
3780,4301,0.19407649999999999,-0.031960699999999995,2452.927125,93.88750075,38.8894758
3781,4302,0.16334749999999998,-0.0333278,2478.03125,93.88750075,38.8894758
3782,4303,0.145382,-0.03800485,2503.135375,93.88750075,38.8894758
3783,4304,0.12062700000000001,-0.038675,2528.239625,93.88750075,38.8894758
3784,4305,0.10335899999999999,-0.040736,2553.34375,93.88750075,38.8894758
3785,4306,0.0857781,-0.0410147,2578.447875,93.88750075,38.8894758
3786,4307,0.07594075,-0.04188565,1398.552065,100.75370025000001,13.2644758
3787,4308,0.0725943,-0.041835800000000006,1423.65625,100.75370025000001,13.2644758
3788,4309,0.07897310000000002,-0.04207975,1448.7604350000001,100.75370025000001,13.2644758
3789,4310,0.09167144999999999,-0.0416305,1473.864565,100.75370025000001,13.2644758
3790,4311,0.10986900000000001,-0.0414234,1498.96875,100.75370025000001,13.2644758
3791,4312,0.1293935,-0.04027485,1524.0729350000001,100.75370025000001,13.2644758
3792,4313,0.152589,-0.03953975,1549.177065,100.75370025000001,13.2644758
3793,4314,0.17370800000000003,-0.036925849999999996,1574.28125,100.75370025000001,13.2644758
3794,4315,0.2000095,-0.035318199999999994,1599.3854350000001,100.75370025000001,13.2644758
3795,4316,0.220325,-0.02867285,1624.489565,100.75370025000001,13.2644758
3796,4317,0.2401145,-0.0127311,1649.59375,100.75370025000001,13.2644758
3797,4318,0.249037,-0.025709949999999995,1674.6979350000001,100.75370025000001,13.2644758
3798,4319,0.2338445,-0.0348632,1699.802065,100.75370025000001,13.2644758
3799,4320,0.1914845,-0.034046549999999995,1724.90625,100.75370025000001,13.2644758
3800,4321,0.1710195,-0.03415675,1750.0104350000001,100.75370025000001,13.2644758
3801,4322,0.1405585,-0.0337122,1775.114565,100.75370025000001,13.2644758
3802,4323,0.11890900000000001,-0.0335338,1800.21875,100.75370025000001,13.2644758
3803,4324,0.09465769999999998,-0.033456400000000004,1825.3229350000001,100.75370025000001,13.2644758
3804,4325,0.07616785000000001,-0.033418500000000004,1850.427065,100.75370025000001,13.2644758
3805,4326,0.0619815,-0.033411449999999995,1875.53125,100.75370025000001,13.2644758
3806,4327,0.05801509999999999,-0.03340765,1900.6354350000001,100.75370025000001,13.2644758
3807,4328,0.06542275,-0.0334089,1925.739565,100.75370025000001,13.2644758
3808,4329,0.08126565,-0.03341134999999999,1950.84375,100.75370025000001,13.2644758
3809,4330,0.1013615,-0.03342265,1975.9479350000001,100.75370025000001,13.2644758
3810,4331,0.12478599999999998,-0.03345455,2001.052065,100.75370025000001,13.2644758
3811,4332,0.14803149999999998,-0.0335072,2026.15625,100.75370025000001,13.2644758
3812,4333,0.17512699999999998,-0.033710500000000004,2051.260435,100.75370025000001,13.2644758
3813,4334,0.1987235,-0.0336866,2076.364625,100.75370025000001,13.2644758
3814,4335,0.23122700000000002,-0.0341584,2101.46875,100.75370025000001,13.2644758
3815,4336,0.274175,-0.013969650000000002,2126.572875,100.75370025000001,13.2644758
3816,4337,0.2697775,-0.04791615,2151.677125,100.75370025000001,13.2644758
3817,4338,0.218661,-0.0454219,2176.78125,100.75370025000001,13.2644758
3818,4339,0.1951055,-0.0356306,2201.885375,100.75370025000001,13.2644758
3819,4340,0.1626015,-0.0338407,2226.989625,100.75370025000001,13.2644758
3820,4341,0.138574,-0.02913955,2252.09375,100.75370025000001,13.2644758
3821,4342,0.111453,-0.02827645,2277.197875,100.75370025000001,13.2644758
3822,4343,0.08797405,-0.026132999999999997,2302.302125,100.75370025000001,13.2644758
3823,4344,0.06565435,-0.02582205,2327.40625,100.75370025000001,13.2644758
3824,4345,0.048686450000000006,-0.02493515,2352.510375,100.75370025000001,13.2644758
3825,4346,0.04351769999999999,-0.02498275,2377.614625,100.75370025000001,13.2644758
3826,4347,0.05255135,-0.0247382,2402.71875,100.75370025000001,13.2644758
3827,4348,0.0714728,-0.025192350000000002,2427.822875,100.75370025000001,13.2644758
3828,4349,0.0941065,-0.02541255,2452.927125,100.75370025000001,13.2644758
3829,4350,0.118242,-0.026585650000000002,2478.03125,100.75370025000001,13.2644758
3830,4351,0.14421650000000003,-0.02740815,2503.135375,100.75370025000001,13.2644758
3831,4352,0.169232,-0.030032950000000003,2528.239625,100.75370025000001,13.2644758
3832,4353,0.19799,-0.03187945,2553.34375,100.75370025000001,13.2644758
3833,4354,0.22315900000000002,-0.0375534,2578.447875,100.75370025000001,13.2644758
3834,4355,0.32921049999999996,-0.05181215,,,
3835,4356,0.242675,-0.06067879999999999,,,
3836,4357,0.20838250000000003,-0.0393419,,,
3837,4358,0.18107299999999998,-0.03768705,,,
3838,4359,0.1548165,-0.02665045,,,
3839,4360,0.1294155,-0.02504805,,,
3840,4361,0.1040915,-0.019858050000000002,,,
3841,4362,0.0795091,-0.019024700000000002,,,
3842,4363,0.05545654999999999,-0.0167003,,,
3843,4364,0.03569585,-0.01649815,,,
3844,4365,0.027474449999999997,-0.015619000000000001,,,
3845,4366,0.04103725,-0.0160081,,,
3846,4367,0.0625296,-0.015988799999999997,,,
3847,4368,0.08693405,-0.01724875,,,
3848,4369,0.1118475,-0.01802985,,,
3849,4370,0.1371195,-0.0209571,,,
3850,4371,0.16260950000000002,-0.0228588,,,
3851,4372,0.1879675,-0.0292404,,,
3852,4373,0.2142135,-0.03280995,,,
3853,4374,0.08668655,-0.02450265,,,
3854,4375,0.09030725,-0.0247377,,,
3855,4376,0.09584145000000001,-0.025473250000000003,,,
3856,4377,0.10160359999999999,-0.025989850000000002,,,
3857,4378,0.1081375,-0.02679725,,,
3858,4379,0.1147975,-0.0277274,,,
3859,4380,0.12176700000000001,-0.028778949999999998,,,
3860,4381,0.128827,-0.030195600000000003,,,
3861,4382,0.13595200000000002,-0.031528150000000005,,,
3862,4383,0.1432585,-0.0335185,,,
3863,4384,0.15052500000000002,-0.035111,,,
3864,4385,0.158265,-0.03784735,,,
3865,4386,0.1660415,-0.0395518,,,
3866,4387,0.1750945,-0.0434645,,,
3867,4388,0.1847995,-0.04485955,,,
3868,4389,0.19811600000000001,-0.05139579999999999,,,
3869,4390,0.21564,-0.05142770000000001,,,
3870,4391,0.2444715,-0.06724905,,,
3871,4392,0.329623,-0.05733475,,,
3872,4393,0.08922355,-0.026907649999999998,,,
3873,4394,0.0935664,-0.027259850000000002,,,
3874,4395,0.09827824999999998,-0.0276348,,,
3875,4396,0.104519,-0.028291249999999997,,,
3876,4397,0.11081649999999998,-0.028992949999999997,,,
3877,4398,0.11785399999999999,-0.029872700000000002,,,
3878,4399,0.124801,-0.030974099999999997,,,
3879,4400,0.1321855,-0.032104350000000004,,,
3880,4401,0.139418,-0.033673,,,
3881,4402,0.14707900000000002,-0.035095350000000004,,,
3882,4403,0.154522,-0.03724595,,,
3883,4404,0.16280699999999998,-0.0389786,,,
3884,4405,0.17066949999999997,-0.04188785,,,
3885,4406,0.1808615,-0.04382095,,,
3886,4407,0.1899595,-0.047711199999999995,,,
3887,4408,0.2066695,-0.049483349999999995,,,
3888,4409,0.21863200000000002,-0.053648100000000004,,,
3889,4410,0.265698,-0.05471034999999999,,,
3890,4411,0.2686555,-0.0166168,,,
3891,4412,0.09382295,-0.03051,,,
3892,4413,0.0965083,-0.0301879,,,
3893,4414,0.10154,-0.030143549999999998,,,
3894,4415,0.10703750000000001,-0.030473,,,
3895,4416,0.11377799999999999,-0.031051950000000002,,,
3896,4417,0.1204065,-0.031807600000000005,,,
3897,4418,0.1278085,-0.032678700000000005,,,
3898,4419,0.13489099999999998,-0.03380865000000001,,,
3899,4420,0.1426965,-0.0349496,,,
3900,4421,0.14998450000000002,-0.036484699999999995,,,
3901,4422,0.15841149999999998,-0.037975049999999996,,,
3902,4423,0.1658175,-0.039935,,,
3903,4424,0.175736,-0.041827699999999995,,,
3904,4425,0.1832075,-0.04392025000000001,,,
3905,4426,0.19710899999999998,-0.04595725,,,
3906,4427,0.2043415,-0.046074149999999994,,,
3907,4428,0.22951500000000002,-0.046896499999999994,,,
3908,4429,0.2348035,-0.02790715,,,
3909,4430,0.23550349999999998,-0.01178455,,,
3910,4431,0.09794255000000002,-0.0353915,,,
3911,4432,0.1000913,-0.0334511,,,
3912,4433,0.10424250000000002,-0.0329058,,,
3913,4434,0.1100795,-0.03281125,,,
3914,4435,0.116096,-0.0330854,,,
3915,4436,0.123197,-0.033582,,,
3916,4437,0.1299565,-0.03425655,,,
3917,4438,0.1376255,-0.035025749999999994,,,
3918,4439,0.14469500000000002,-0.03597035,,,
3919,4440,0.152951,-0.037026100000000006,,,
3920,4441,0.16014,-0.038169100000000004,,,
3921,4442,0.1694655,-0.03961185,,,
3922,4443,0.1765135,-0.04058015,,,
3923,4444,0.1880425,-0.04232205,,,
3924,4445,0.1941555,-0.041381799999999996,,,
3925,4446,0.2094335,-0.042079149999999996,,,
3926,4447,0.2132385,-0.031783149999999996,,,
3927,4448,0.218696,-0.02346005,,,
3928,4449,0.21816999999999998,-0.0055262950000000005,,,
3929,4450,0.1007141,-0.039404299999999996,,,
3930,4451,0.103031,-0.037082050000000005,,,
3931,4452,0.1072555,-0.035782999999999995,,,
3932,4453,0.1123575,-0.035263249999999996,,,
3933,4454,0.1188085,-0.0351911,,,
3934,4455,0.12503799999999998,-0.035351350000000004,,,
3935,4456,0.132293,-0.0356721,,,
3936,4457,0.138979,-0.03606105,,,
3937,4458,0.14680549999999998,-0.03659355,,,
3938,4459,0.153699,-0.037032999999999996,,,
3939,4460,0.1622925,-0.0378167,,,
3940,4461,0.16916799999999999,-0.037984500000000004,,,
3941,4462,0.17895,-0.03902235,,,
3942,4463,0.18520399999999998,-0.03778445,,,
3943,4464,0.19615500000000002,-0.038441249999999996,,,
3944,4465,0.20003700000000002,-0.0322862,,,
3945,4466,0.20569199999999999,-0.028428099999999998,,,
3946,4467,0.204937,-0.0154224,1373.5,-95.0419769,-36.5625
3947,4468,0.2003425,-0.003161085,1373.5,-100.01399229999998,-12.1875
3948,4469,0.103059,-0.04302985000000001,1348.5,-95.0419769,-36.5625
3949,4470,0.10555450000000001,-0.040427,1348.5,-100.01399229999998,-12.1875
3950,4471,0.109461,-0.0386837,1323.5,-95.0419769,-36.5625
3951,4472,0.11504149999999999,-0.03786055,1323.5,-100.01399229999998,-12.1875
3952,4473,0.1205775,-0.037395899999999996,1298.5,-95.0419769,-36.5625
3953,4474,0.127187,-0.03719355,1298.5,-100.01399229999998,-12.1875
3954,4475,0.1333185,-0.037050200000000005,1273.5,-95.0419769,-36.5625
3955,4476,0.14050200000000002,-0.037043099999999995,1273.5,-100.01399229999998,-12.1875
3956,4477,0.14690999999999999,-0.036874199999999996,1248.5,-95.0419769,-36.5625
3957,4478,0.154673,-0.03696675,1248.5,-100.01399229999998,-12.1875
3958,4479,0.16118749999999998,-0.036481400000000004,1223.5,-95.0419769,-36.5625
3959,4480,0.16961,-0.0366426,1223.5,-100.01399229999998,-12.1875
3960,4481,0.17591600000000002,-0.035142849999999996,184.34285749999998,13.2644758,100.75370025000001
3961,4482,0.184595,-0.035101049999999995,209.028572,13.2644758,100.75370025000001
3962,4483,0.18974049999999998,-0.0308347,233.71428650000001,13.2644758,100.75370025000001
3963,4484,0.19541,-0.0292536,258.40000150000003,13.2644758,100.75370025000001
3964,4485,0.1958015,-0.0204839,283.0857085,13.2644758,100.75370025000001
3965,4486,0.19237949999999998,-0.013320499999999999,307.771423,13.2644758,100.75370025000001
3966,4487,0.18714799999999998,-0.00010623000000000007,332.457138,13.2644758,100.75370025000001
3967,4488,0.10502500000000001,-0.04644915000000001,357.142853,13.2644758,100.75370025000001
3968,4489,0.1072235,-0.04324285,381.82856749999996,13.2644758,100.75370025000001
3969,4490,0.1121325,-0.0417319,406.514282,13.2644758,100.75370025000001
3970,4491,0.1168955,-0.040557449999999995,431.199997,13.2644758,100.75370025000001
3971,4492,0.12274199999999999,-0.03979025,455.88571199999996,13.2644758,100.75370025000001
3972,4493,0.12821149999999998,-0.03912885,480.5714264999999,13.2644758,100.75370025000001
3973,4494,0.1345965,-0.03860075,505.25712599999997,13.2644758,100.75370025000001
3974,4495,0.14036099999999999,-0.03791155,529.942841,13.2644758,100.75370025000001
3975,4496,0.147206,-0.0373915,554.628571,13.2644758,100.75370025000001
3976,4497,0.153104,-0.0363599,579.314301,13.2644758,100.75370025000001
3977,4498,0.160339,-0.035714300000000004,604.0,13.2644758,100.75370025000001
3978,4499,0.166203,-0.03387514999999999,628.685699,13.2644758,100.75370025000001
3979,4500,0.173383,-0.0328798,653.371429,13.2644758,100.75370025000001
3980,4501,0.178862,-0.029304499999999997,678.057159,13.2644758,100.75370025000001
3981,4502,0.18408549999999999,-0.027414349999999997,702.7428585,13.2644758,100.75370025000001
3982,4503,0.1879585,-0.0209986,727.4285580000001,13.2644758,100.75370025000001
3983,4504,0.18721100000000002,-0.01793185,752.114288,13.2644758,100.75370025000001
3984,4505,0.1823325,-0.008335829999999999,776.8000180000001,13.2644758,100.75370025000001
3985,4506,0.1727435,0.00177309,801.4857175,13.2644758,100.75370025000001
3986,4507,0.10546,-0.048455200000000004,826.171417,13.2644758,100.75370025000001
3987,4508,0.11016849999999999,-0.0465468,850.8571469999999,13.2644758,100.75370025000001
3988,4509,0.1141605,-0.0447766,875.5428769999999,13.2644758,100.75370025000001
3989,4510,0.11927850000000001,-0.043488349999999995,900.2285764999999,13.2644758,100.75370025000001
3990,4511,0.12406400000000001,-0.04234715,924.914276,13.2644758,100.75370025000001
3991,4512,0.1295735,-0.04133265,949.6000060000001,13.2644758,100.75370025000001
3992,4513,0.1346295,-0.0402097,974.285736,13.2644758,100.75370025000001
3993,4514,0.1405075,-0.03919715,998.9714355,13.2644758,100.75370025000001
3994,4515,0.1456495,-0.037740800000000005,1023.6571349999999,13.2644758,100.75370025000001
3995,4516,0.151762,-0.036495,184.34285749999998,38.8894758,93.88750075
3996,4517,0.1568275,-0.034324099999999996,209.028572,38.8894758,93.88750075
3997,4518,0.162774,-0.032552899999999996,233.71428650000001,38.8894758,93.88750075
3998,4519,0.167578,-0.0290942,258.40000150000003,38.8894758,93.88750075
3999,4520,0.172159,-0.026317800000000002,283.0857085,38.8894758,93.88750075
4000,4521,0.17645,-0.020903400000000003,307.771423,38.8894758,93.88750075
4001,4522,0.1770695,-0.016725300000000002,332.457138,38.8894758,93.88750075
4002,4523,0.18022749999999998,-0.009036454999999999,357.142853,38.8894758,93.88750075
4003,4524,0.172925,-0.0061042100000000005,381.82856749999996,38.8894758,93.88750075
4004,4525,0.16001549999999998,0.004700805000000001,406.514282,38.8894758,93.88750075
4005,4526,0.109293,-0.05189099999999999,431.199997,38.8894758,93.88750075
4006,4527,0.112672,-0.0498894,455.88571199999996,38.8894758,93.88750075
4007,4528,0.117012,-0.04812695,480.5714264999999,38.8894758,93.88750075
4008,4529,0.1211515,-0.046602700000000004,505.25712599999997,38.8894758,93.88750075
4009,4530,0.1257625,-0.04513975,529.942841,38.8894758,93.88750075
4010,4531,0.1301415,-0.043668,554.628571,38.8894758,93.88750075
4011,4532,0.1350745,-0.0422772,579.314301,38.8894758,93.88750075
4012,4533,0.139482,-0.0405356,604.0,38.8894758,93.88750075
4013,4534,0.144552,-0.038926800000000004,628.685699,38.8894758,93.88750075
4014,4535,0.148752,-0.036543599999999996,653.371429,38.8894758,93.88750075
4015,4536,0.1535755,-0.0343515,678.057159,38.8894758,93.88750075
4016,4537,0.157302,-0.030864,702.7428585,38.8894758,93.88750075
4017,4538,0.1610655,-0.02755705,727.4285580000001,38.8894758,93.88750075
4018,4539,0.16407950000000002,-0.02246585,752.114288,38.8894758,93.88750075
4019,4540,0.165215,-0.0173015,776.8000180000001,38.8894758,93.88750075
4020,4541,0.1675845,-0.0103544,801.4857175,38.8894758,93.88750075
4021,4542,0.1636035,-0.0027930999999999997,826.171417,38.8894758,93.88750075
4022,4543,0.16831449999999998,0.006003039999999999,850.8571469999999,38.8894758,93.88750075
4023,4544,0.1501045,0.007827075,875.5428769999999,38.8894758,93.88750075
4024,4545,0.11321899999999999,-0.0559099,900.2285764999999,38.8894758,93.88750075
4025,4546,0.116114,-0.05348255,924.914276,38.8894758,93.88750075
4026,4547,0.1196205,-0.05165515,949.6000060000001,38.8894758,93.88750075
4027,4548,0.1232445,-0.0497388,974.285736,38.8894758,93.88750075
4028,4549,0.1270235,-0.04798765,998.9714355,38.8894758,93.88750075
4029,4550,0.13110349999999998,-0.0463032,1023.6571349999999,38.8894758,93.88750075
4030,4551,0.134938,-0.044414999999999996,184.34285749999998,61.86422350000001,80.623024
4031,4552,0.139142,-0.042646199999999995,209.028572,61.86422350000001,80.623024
4032,4553,0.142676,-0.04024405,233.71428650000001,61.86422350000001,80.623024
4033,4554,0.14656249999999998,-0.037989049999999996,258.40000150000003,61.86422350000001,80.623024
4034,4555,0.1493625,-0.034606700000000004,283.0857085,61.86422350000001,80.623024
4035,4556,0.1522705,-0.0313093,307.771423,61.86422350000001,80.623024
4036,4557,0.153847,-0.026442300000000002,332.457138,61.86422350000001,80.623024
4037,4558,0.1547755,-0.0212824,357.142853,61.86422350000001,80.623024
4038,4559,0.15469149999999998,-0.01456735,381.82856749999996,61.86422350000001,80.623024
4039,4560,0.15246500000000002,-0.006282285,406.514282,61.86422350000001,80.623024
4040,4561,0.15090150000000002,0.002219385,431.199997,61.86422350000001,80.623024
4041,4562,0.1453565,0.016580650000000002,455.88571199999996,61.86422350000001,80.623024
4042,4563,0.15183950000000002,0.025089200000000002,480.5714264999999,61.86422350000001,80.623024
4043,4564,0.0740698,-0.02973715,505.25712599999997,61.86422350000001,80.623024
4044,4565,0.07480885000000001,-0.02952855,529.942841,61.86422350000001,80.623024
4045,4566,0.07744645,-0.029836949999999998,554.628571,61.86422350000001,80.623024
4046,4567,0.0802476,-0.029948,579.314301,61.86422350000001,80.623024
4047,4568,0.08388000000000001,-0.030329000000000002,604.0,61.86422350000001,80.623024
4048,4569,0.08772975,-0.03082335,628.685699,61.86422350000001,80.623024
4049,4570,0.09191155000000001,-0.031384949999999995,653.371429,61.86422350000001,80.623024
4050,4571,0.09633810000000001,-0.0322707,678.057159,61.86422350000001,80.623024
4051,4572,0.10076774999999999,-0.032980800000000005,702.7428585,61.86422350000001,80.623024
4052,4573,0.10557749999999999,-0.03426359999999999,727.4285580000001,61.86422350000001,80.623024
4053,4574,0.11016200000000001,-0.03502695,752.114288,61.86422350000001,80.623024
4054,4575,0.1154725,-0.036757649999999996,776.8000180000001,61.86422350000001,80.623024
4055,4576,0.12044149999999999,-0.037366899999999995,801.4857175,61.86422350000001,80.623024
4056,4577,0.12699700000000003,-0.039767449999999996,826.171417,61.86422350000001,80.623024
4057,4578,0.133495,-0.039810899999999996,850.8571469999999,61.86422350000001,80.623024
4058,4579,0.143876,-0.043876849999999995,875.5428769999999,61.86422350000001,80.623024
4059,4580,0.1568635,-0.042486499999999996,900.2285764999999,61.86422350000001,80.623024
4060,4581,0.1807385,-0.05327744999999999,924.914276,61.86422350000001,80.623024
4061,4582,0.2494035,-0.04359740000000001,949.6000060000001,61.86422350000001,80.623024
4062,4583,0.0755733,-0.031071500000000002,974.285736,61.86422350000001,80.623024
4063,4584,0.07710534999999999,-0.0310314,998.9714355,61.86422350000001,80.623024
4064,4585,0.07899729999999999,-0.03105015,1023.6571349999999,61.86422350000001,80.623024
4065,4586,0.0823287,-0.03134315,184.34285749999998,80.623024,61.8642235
4066,4587,0.08577075,-0.0316841,209.028572,80.623024,61.8642235
4067,4588,0.08994195,-0.03217195,233.71428650000001,80.623024,61.8642235
4068,4589,0.0941428,-0.03285795,258.40000150000003,80.623024,61.8642235
4069,4590,0.09871920000000001,-0.03350955,283.0857085,80.623024,61.8642235
4070,4591,0.103318,-0.0345487,307.771423,80.623024,61.8642235
4071,4592,0.10816500000000001,-0.03533675,332.457138,80.623024,61.8642235
4072,4593,0.11306150000000001,-0.03676355,357.142853,80.623024,61.8642235
4073,4594,0.118376,-0.03762615,381.82856749999996,80.623024,61.8642235
4074,4595,0.123756,-0.0394994,406.514282,80.623024,61.8642235
4075,4596,0.1304825,-0.04026175,431.199997,80.623024,61.8642235
4076,4597,0.137115,-0.0426429,455.88571199999996,80.623024,61.8642235
4077,4598,0.1489385,-0.0429619,480.5714264999999,80.623024,61.8642235
4078,4599,0.158415,-0.0451723,505.25712599999997,80.623024,61.8642235
4079,4600,0.19484200000000002,-0.0445914,529.942841,80.623024,61.8642235
4080,4601,0.19886750000000003,-0.01254285,554.628571,80.623024,61.8642235
4081,4602,0.07924185,-0.03350095,579.314301,80.623024,61.8642235
4082,4603,0.07928365000000001,-0.032914399999999996,604.0,80.623024,61.8642235
4083,4604,0.08137645,-0.0325824,628.685699,80.623024,61.8642235
4084,4605,0.08405670000000001,-0.032642199999999996,653.371429,80.623024,61.8642235
4085,4606,0.08790970000000001,-0.03293445,678.057159,80.623024,61.8642235
4086,4607,0.09175649999999999,-0.0333951,702.7428585,80.623024,61.8642235
4087,4608,0.09631175,-0.03393385,727.4285580000001,80.623024,61.8642235
4088,4609,0.10068440000000001,-0.03470675,752.114288,80.623024,61.8642235
4089,4610,0.105633,-0.035414749999999995,776.8000180000001,80.623024,61.8642235
4090,4611,0.11027150000000001,-0.0364864,801.4857175,80.623024,61.8642235
4091,4612,0.1157115,-0.03736655,826.171417,80.623024,61.8642235
4092,4613,0.12052199999999999,-0.03870465000000001,850.8571469999999,80.623024,61.8642235
4093,4614,0.1270425,-0.039705449999999996,875.5428769999999,80.623024,61.8642235
4094,4615,0.131986,-0.04098655,900.2285764999999,80.623024,61.8642235
4095,4616,0.141456,-0.0417816,924.914276,80.623024,61.8642235
4096,4617,0.1462775,-0.04118265,949.6000060000001,80.623024,61.8642235
4097,4618,0.1647455,-0.04058645,974.285736,80.623024,61.8642235
4098,4619,0.16805599999999998,-0.0242733,998.9714355,80.623024,61.8642235
4099,4620,0.169608,-0.009037,1023.6571349999999,80.623024,61.8642235
4100,4621,0.08310310000000001,-0.03723445,184.34285749999998,93.88750075,38.8894758
4101,4622,0.08211689999999999,-0.035083050000000005,209.028572,93.88750075,38.8894758
4102,4623,0.0834414,-0.0343768,233.71428650000001,93.88750075,38.8894758
4103,4624,0.08635799999999999,-0.0341023,258.40000150000003,93.88750075,38.8894758
4104,4625,0.08959855,-0.0342029,283.0857085,93.88750075,38.8894758
4105,4626,0.09385705,-0.034506499999999996,307.771423,93.88750075,38.8894758
4106,4627,0.09788939999999999,-0.0349806,332.457138,93.88750075,38.8894758
4107,4628,0.1027175,-0.035506649999999994,357.142853,93.88750075,38.8894758
4108,4629,0.107086,-0.036207199999999995,381.82856749999996,93.88750075,38.8894758
4109,4630,0.112415,-0.0369151,406.514282,93.88750075,38.8894758
4110,4631,0.11690700000000001,-0.03776,431.199997,93.88750075,38.8894758
4111,4632,0.12303700000000001,-0.03865575,455.88571199999996,93.88750075,38.8894758
4112,4633,0.1273655,-0.03929675,480.5714264999999,93.88750075,38.8894758
4113,4634,0.135031,-0.04015245,505.25712599999997,93.88750075,38.8894758
4114,4635,0.13840550000000001,-0.0390539,529.942841,93.88750075,38.8894758
4115,4636,0.14875100000000002,-0.03856575,554.628571,93.88750075,38.8894758
4116,4637,0.149871,-0.029474600000000004,579.314301,93.88750075,38.8894758
4117,4638,0.153144,-0.0209393,604.0,93.88750075,38.8894758
4118,4639,0.1530315,-0.004309725,628.685699,93.88750075,38.8894758
4119,4640,0.0853713,-0.0400085,653.371429,93.88750075,38.8894758
4120,4641,0.08463675,-0.03763955,678.057159,93.88750075,38.8894758
4121,4642,0.08585290000000001,-0.03626650000000001,702.7428585,93.88750075,38.8894758
4122,4643,0.0881549,-0.03569610000000001,727.4285580000001,93.88750075,38.8894758
4123,4644,0.09177205,-0.03555855000000001,752.114288,93.88750075,38.8894758
4124,4645,0.0952973,-0.03565840000000001,776.8000180000001,93.88750075,38.8894758
4125,4646,0.09975899999999999,-0.0359018,801.4857175,93.88750075,38.8894758
4126,4647,0.103751,-0.0362247,826.171417,93.88750075,38.8894758
4127,4648,0.10874,-0.0366403,850.8571469999999,93.88750075,38.8894758
4128,4649,0.1129065,-0.037022,875.5428769999999,93.88750075,38.8894758
4129,4650,0.1185165,-0.03759415000000001,900.2285764999999,93.88750075,38.8894758
4130,4651,0.1225705,-0.03776085,924.914276,93.88750075,38.8894758
4131,4652,0.12901400000000002,-0.0383758,949.6000060000001,93.88750075,38.8894758
4132,4653,0.13222650000000002,-0.03733725,974.285736,93.88750075,38.8894758
4133,4654,0.13920300000000002,-0.0371735,998.9714355,93.88750075,38.8894758
4134,4655,0.13988299999999998,-0.031780749999999997,1023.6571349999999,93.88750075,38.8894758
4135,4656,0.1423045,-0.02710405,184.34285749999998,100.75370025000001,13.2644758
4136,4657,0.13995000000000002,-0.01507205,209.028572,100.75370025000001,13.2644758
4137,4658,0.1357795,-0.002651945,233.71428650000001,100.75370025000001,13.2644758
4138,4659,0.08721475,-0.0424256,258.40000150000003,100.75370025000001,13.2644758
4139,4660,0.08668514999999999,-0.0398695,283.0857085,100.75370025000001,13.2644758
4140,4661,0.0876889,-0.038200250000000005,307.771423,100.75370025000001,13.2644758
4141,4662,0.0904324,-0.03742765,332.457138,100.75370025000001,13.2644758
4142,4663,0.09329735,-0.0370285,357.142853,100.75370025000001,13.2644758
4143,4664,0.09717395000000001,-0.0368865,381.82856749999996,100.75370025000001,13.2644758
4144,4665,0.10066449999999999,-0.036820500000000006,406.514282,100.75370025000001,13.2644758
4145,4666,0.1051095,-0.036879449999999994,431.199997,100.75370025000001,13.2644758
4146,4667,0.1088335,-0.0368274,455.88571199999996,100.75370025000001,13.2644758
4147,4668,0.11379,-0.036977750000000004,480.5714264999999,100.75370025000001,13.2644758
4148,4669,0.117507,-0.03670395,505.25712599999997,100.75370025000001,13.2644758
4149,4670,0.122977,-0.03686625,529.942841,100.75370025000001,13.2644758
4150,4671,0.126201,-0.0357895,554.628571,100.75370025000001,13.2644758
4151,4672,0.131658,-0.03554825,579.314301,100.75370025000001,13.2644758
4152,4673,0.13314350000000003,-0.0321025,604.0,100.75370025000001,13.2644758
4153,4674,0.1354525,-0.02975905,628.685699,100.75370025000001,13.2644758
4154,4675,0.132677,-0.02180795,653.371429,100.75370025000001,13.2644758
4155,4676,0.1275135,-0.0136708,678.057159,100.75370025000001,13.2644758
4156,4677,0.122587,-0.00061536965,702.7428585,100.75370025000001,13.2644758
4157,4678,0.08868065,-0.0446062,727.4285580000001,100.75370025000001,13.2644758
4158,4679,0.08791275000000001,-0.04161085,752.114288,100.75370025000001,13.2644758
4159,4680,0.0900012,-0.04026085,776.8000180000001,100.75370025000001,13.2644758
4160,4681,0.09213475,-0.039266449999999994,801.4857175,100.75370025000001,13.2644758
4161,4682,0.09531919999999999,-0.0386728,826.171417,100.75370025000001,13.2644758
4162,4683,0.0982306,-0.0382044,850.8571469999999,100.75370025000001,13.2644758
4163,4684,0.1019825,-0.03787675,875.5428769999999,100.75370025000001,13.2644758
4164,4685,0.10515549999999999,-0.03743055,900.2285764999999,100.75370025000001,13.2644758
4165,4686,0.10934200000000001,-0.0371547,924.914276,100.75370025000001,13.2644758
4166,4687,0.11255299999999999,-0.0364709,949.6000060000001,100.75370025000001,13.2644758
4167,4688,0.11708750000000001,-0.03612345,974.285736,100.75370025000001,13.2644758
4168,4689,0.12003250000000001,-0.03483125,998.9714355,100.75370025000001,13.2644758
4169,4690,0.12446499999999999,-0.03416315,1023.6571349999999,100.75370025000001,13.2644758
4170,4691,0.1264415,-0.031474100000000005,1023.6571349999999,100.0139923,-12.1875
4171,4692,0.1289055,-0.02974225,1023.6571349999999,95.04197690000001,-36.5625
4172,4693,0.1282085,-0.02451205,998.9714355,100.0139923,-12.1875
4173,4694,0.12455150000000001,-0.0202404,998.9714355,95.04197690000001,-36.5625
4174,4695,0.11718,-0.01085655,974.285736,100.0139923,-12.1875
4175,4696,0.1076105,0.0005565279999999999,974.285736,95.04197690000001,-36.5625
4176,4697,0.0884588,-0.04546435,949.6000060000001,100.0139923,-12.1875
4177,4698,0.09037495,-0.0438203,949.6000060000001,95.04197690000001,-36.5625
4178,4699,0.09185095000000001,-0.04233775000000001,924.914276,100.0139923,-12.1875
4179,4700,0.09440335,-0.041319100000000004,924.914276,95.04197690000001,-36.5625
4180,4701,0.09673965,-0.040464650000000005,900.2285764999999,100.0139923,-12.1875
4181,4702,0.09973235,-0.039745199999999994,900.2285764999999,95.04197690000001,-36.5625
4182,4703,0.10231799999999999,-0.0389545,875.5428769999999,100.0139923,-12.1875
4183,4704,0.1056795,-0.03829905,875.5428769999999,95.04197690000001,-36.5625
4184,4705,0.1082845,-0.0372756,850.8571469999999,100.0139923,-12.1875
4185,4706,0.11187949999999999,-0.036493250000000005,850.8571469999999,95.04197690000001,-36.5625
4186,4707,0.114263,-0.034932599999999994,826.171417,100.0139923,-12.1875
4187,4708,0.117722,-0.03378325,826.171417,95.04197690000001,-36.5625
4188,4709,0.1194675,-0.03121645,801.4857175,100.0139923,-12.1875
4189,4710,0.12166450000000001,-0.029251549999999998,801.4857175,95.04197690000001,-36.5625
4190,4711,0.12192149999999999,-0.02507905,776.8000180000001,100.0139923,-12.1875
4191,4712,0.1202585,-0.0216168,776.8000180000001,95.04197690000001,-36.5625
4192,4713,0.11695149999999999,-0.01534645,752.1142880000001,100.0139923,-12.1875
4193,4714,0.106879,-0.00973803,752.1142880000001,95.04197690000001,-36.5625
4194,4715,0.09413964999999999,0.001953245,727.4285580000001,100.0139923,-12.1875
4195,4716,0.09147249999999998,-0.047727099999999995,727.4285580000001,95.04197690000001,-36.5625
4196,4717,0.09258380000000001,-0.0461178,702.7428585,100.0139923,-12.1875
4197,4718,0.09449379999999999,-0.044711600000000004,702.7428585,95.04197690000001,-36.5625
4198,4719,0.0963317,-0.0435508,678.057159,100.0139923,-12.1875
4199,4720,0.09855670000000001,-0.0424486,678.057159,95.04197690000001,-36.5625
4200,4721,0.10060050000000001,-0.041368749999999996,653.371429,100.0139923,-12.1875
4201,4722,0.103161,-0.040393349999999995,653.371429,95.04197690000001,-36.5625
4202,4723,0.1051975,-0.039130349999999994,628.685699,100.0139923,-12.1875
4203,4724,0.10791700000000001,-0.03805119999999999,628.685699,95.04197690000001,-36.5625
4204,4725,0.10967650000000001,-0.0363022,604.0,100.0139923,-12.1875
4205,4726,0.1121965,-0.0348339,604.0,95.04197690000001,-36.5625
4206,4727,0.11330300000000001,-0.03221645,579.314301,100.0139923,-12.1875
4207,4728,0.1148525,-0.0299455,579.314301,95.04197690000001,-36.5625
4208,4729,0.11474400000000001,-0.02602505,554.6285710000001,100.0139923,-12.1875
4209,4730,0.113758,-0.022369800000000002,554.6285710000001,95.04197690000001,-36.5625
4210,4731,0.11149200000000001,-0.0168759,529.942841,100.0139923,-12.1875
4211,4732,0.105224,-0.01126895,529.942841,95.04197690000001,-36.5625
4212,4733,0.0989225,-0.00411587,505.25712599999997,100.0139923,-12.1875
4213,4734,0.08032450000000001,0.0037530849999999998,505.25712599999997,95.04197690000001,-36.5625
4214,4735,0.09498745,-0.05067535,480.5714264999999,100.0139923,-12.1875
4215,4736,0.09564505000000001,-0.04869175,480.5714264999999,95.04197690000001,-36.5625
4216,4737,0.0970226,-0.04729145,455.88571199999996,100.0139923,-12.1875
4217,4738,0.0984034,-0.04578065,455.88571199999996,95.04197690000001,-36.5625
4218,4739,0.09998045,-0.044455900000000007,431.199997,100.0139923,-12.1875
4219,4740,0.101828,-0.0432072,431.199997,95.04197690000001,-36.5625
4220,4741,0.1034465,-0.04180895,406.514282,100.0139923,-12.1875
4221,4742,0.10546649999999999,-0.0405711,406.514282,95.04197690000001,-36.5625
4222,4743,0.10678200000000002,-0.038791400000000004,381.82856749999996,100.0139923,-12.1875
4223,4744,0.10855600000000001,-0.037244,381.82856749999996,95.04197690000001,-36.5625
4224,4745,0.109099,-0.03469075,357.142853,100.0139923,-12.1875
4225,4746,0.10996449999999999,-0.032398949999999996,357.142853,95.04197690000001,-36.5625
4226,4747,0.1091105,-0.0286272,332.457138,100.0139923,-12.1875
4227,4748,0.10797699999999999,-0.02497945,332.457138,95.04197690000001,-36.5625
4228,4749,0.104911,-0.0196161,307.771423,100.0139923,-12.1875
4229,4750,0.10015009999999999,-0.013801200000000001,307.771423,95.04197690000001,-36.5625
4230,4751,0.0937338,-0.0067218,283.0857085,100.0139923,-12.1875
4231,4752,0.08310375,0.0026089850000000003,283.0857085,95.04197690000001,-36.5625
4232,4753,0.0716744,0.011351865,258.40000150000003,100.0139923,-12.1875
4233,4754,0.06895180000000001,-0.03552855,258.40000150000003,95.04197690000001,-36.5625
4234,4755,0.06744395,-0.03501535,233.71428650000001,100.0139923,-12.1875
4235,4756,0.06713759999999999,-0.0347788,233.71428650000001,95.04197690000001,-36.5625
4236,4757,0.0671853,-0.0345881,209.028572,100.0139923,-12.1875
4237,4758,0.06749435,-0.034378950000000005,209.028572,95.04197690000001,-36.5625
4238,4759,0.0684111,-0.03446815,184.34285749999998,100.0139923,-12.1875
4239,4760,0.0692411,-0.0343938,184.34285749999998,95.04197690000001,-36.5625
4240,4761,0.07069695,-0.034687949999999995,1373.5,-2.435684085,-490.559204
4241,4762,0.07182735,-0.03466605,1373.5,-7.307050825,-466.67762749999997
4242,4763,0.07363355,-0.035075499999999996,1373.5,-12.178417465,-442.796051
4243,4764,0.07489209999999999,-0.0349313,1373.5,-17.049784199999998,-418.9144745
4244,4765,0.07710265,-0.03538915,1373.5,-21.921150675,-395.032898
4245,4766,0.07856365,-0.034858349999999996,1373.5,-26.792517174999997,-371.1513215
4246,4767,0.08184195,-0.03543935,1373.5,-31.663883674999997,-347.26974500000006
4247,4768,0.08442845,-0.034150849999999996,1373.5,-36.535251599999995,-323.388153
4248,4769,0.09119695,-0.035543649999999996,1373.5,-41.406618099999996,-299.5065765
4249,4770,0.09919059999999999,-0.03286135,1373.5,-46.277984599999996,-275.625
4250,4771,0.117901,-0.0386994,1373.5,-51.14935299999999,-251.743416
4251,4772,0.17044,-0.0295563,1373.5,-56.0207195,-227.86183949999997
4252,4773,0.0690595,-0.0358291,1373.5,-60.89208599999999,-203.98026249999998
4253,4774,0.06792715,-0.035293050000000006,1373.5,-65.7634525,-180.09868600000001
4254,4775,0.0674882,-0.0351017,1373.5,-70.634819,-156.2171095
4255,4776,0.0676128,-0.03486715,1373.5,-75.50618739999999,-132.335529
4256,4777,0.06831435000000001,-0.03493035,1373.5,-80.377553925,-108.45394885000002
4257,4778,0.0691176,-0.03487725,1373.5,-85.24891852500001,-84.5723686
4258,4779,0.07046325,-0.03515525,1373.5,-90.120285,-60.69078825
4259,4780,0.07168675,-0.0352254,1348.5,-2.43568468,-490.559204
4260,4781,0.0733998,-0.035654599999999995,1348.5,-7.307051179999999,-466.67762749999997
4261,4782,0.07487235,-0.0357433,1348.5,-12.1784177,-442.796051
4262,4783,0.0768401,-0.0362592,1348.5,-17.049784199999998,-418.9144745
4263,4784,0.07858499999999999,-0.036208500000000005,1348.5,-21.9211502,-395.032898
4264,4785,0.08096125,-0.0367553,1348.5,-26.7925167,-371.1513215
4265,4786,0.0835814,-0.036334,1348.5,-31.6638832,-347.26974500000006
4266,4787,0.0871358,-0.0368963,1348.5,-36.535251599999995,-323.388153
4267,4788,0.0934787,-0.035826949999999996,1348.5,-41.406618099999996,-299.5065765
4268,4789,0.09996665,-0.035936800000000005,1348.5,-46.277984599999996,-275.625
4269,4790,0.12559700000000001,-0.033896300000000004,1348.5,-51.14935299999999,-251.743416
4270,4791,0.13079000000000002,-0.00810464,1348.5,-56.0207195,-227.86183949999997
4271,4792,0.0710238,-0.0369312,1348.5,-60.89208599999999,-203.98026249999998
4272,4793,0.06917345,-0.036281100000000004,1348.5,-65.7634525,-180.09868600000001
4273,4794,0.06812560000000001,-0.03545184999999999,1348.5,-70.634819,-156.2171095
4274,4795,0.0683554,-0.03538215,1348.5,-75.50618739999999,-132.335529
4275,4796,0.06886379999999999,-0.0351996,1348.5,-80.377552,-108.45394885000002
4276,4797,0.07003965000000001,-0.0354313,1348.5,-85.2489166,-84.5723686
4277,4798,0.0712633,-0.03552445,1348.5,-90.120285,-60.69078825
4278,4799,0.07290654999999999,-0.03593815,1323.5,-2.43568468,-490.559204
4279,4800,0.07452965,-0.036163299999999995,1323.5,-7.307051179999999,-466.67762749999997
4280,4801,0.07639325,-0.03667715,1323.5,-12.1784177,-442.796051
4281,4802,0.07834754999999999,-0.03692165,1323.5,-17.049784199999998,-418.9144745
4282,4803,0.08029644999999999,-0.037406850000000005,1323.5,-21.9211502,-395.032898
4283,4804,0.0828429,-0.03749075,1323.5,-26.7925167,-371.1513215
4284,4805,0.0847937,-0.037589449999999996,1323.5,-31.6638832,-347.26974500000006
4285,4806,0.0891922,-0.037149249999999995,1323.5,-36.535251599999995,-323.388153
4286,4807,0.0909453,-0.035473450000000004,1323.5,-41.406618099999996,-299.5065765
4287,4808,0.1022685,-0.0335941,1323.5,-46.277984599999996,-275.625
4288,4809,0.102996,-0.019918150000000003,1323.5,-51.14935299999999,-251.743416
4289,4810,0.10610349999999999,-0.005979275,1323.5,-56.0207195,-227.86183949999997
4290,4811,0.0746656,-0.039772100000000005,1323.5,-60.89208599999999,-203.98026249999998
4291,4812,0.0704285,-0.0371299,1323.5,-65.7634525,-180.09868600000001
4292,4813,0.0695191,-0.0364751,1323.5,-70.634819,-156.2171095
4293,4814,0.06903324999999999,-0.035743250000000004,1323.5,-75.50618739999999,-132.335529
4294,4815,0.06980685,-0.03578655,1323.5,-80.377552,-108.45394885000002
4295,4816,0.0707558,-0.03573495,1323.5,-85.2489166,-84.5723686
4296,4817,0.0722485,-0.0360684,1323.5,-90.120285,-60.69078825
4297,4818,0.0738579,-0.03630395,1298.5,-2.43568468,-490.559204
4298,4819,0.07563229999999999,-0.03676115,1298.5,-7.307051179999999,-466.67762749999997
4299,4820,0.0776567,-0.03712585,1298.5,-12.1784177,-442.796051
4300,4821,0.07944095000000001,-0.0375552,1298.5,-17.049784199999998,-418.9144745
4301,4822,0.08189745000000001,-0.03790255,1298.5,-21.9211502,-395.032898
4302,4823,0.0832721,-0.037893300000000005,1298.5,-26.7925167,-371.1513215
4303,4824,0.0864412,-0.037837449999999995,1298.5,-31.6638832,-347.26974500000006
4304,4825,0.08647445,-0.0360662,1298.5,-36.535251599999995,-323.388153
4305,4826,0.0912674,-0.0344402,1298.5,-41.406618099999996,-299.5065765
4306,4827,0.08875374999999999,-0.02618245,1298.5,-46.277984599999996,-275.625
4307,4828,0.0900513,-0.017776399999999998,1298.5,-51.14935299999999,-251.743416
4308,4829,0.0905306,-0.00279274,1298.5,-56.0207195,-227.86183949999997
4309,4830,0.0757458,-0.04103405,1298.5,-60.89208599999999,-203.98026249999998
4310,4831,0.0727446,-0.038943200000000004,1298.5,-65.7634525,-180.09868600000001
4311,4832,0.07036085,-0.03708615,1298.5,-70.634819,-156.2171095
4312,4833,0.07032055,-0.03663045,1298.5,-75.50618739999999,-132.335529
4313,4834,0.07055130000000001,-0.036157100000000005,1298.5,-80.377552,-108.45394885000002
4314,4835,0.0717256,-0.03629255,1298.5,-85.2489166,-84.5723686
4315,4836,0.07308175,-0.03638569999999999,1298.5,-90.120285,-60.69078825
4316,4837,0.07468585,-0.036716700000000005,1273.5,-2.43568468,-490.559204
4317,4838,0.07659964999999999,-0.0370454,1273.5,-7.307051179999999,-466.67762749999997
4318,4839,0.0782692,-0.0373811,1273.5,-12.1784177,-442.796051
4319,4840,0.08057719999999999,-0.03779009999999999,1273.5,-17.049784199999998,-418.9144745
4320,4841,0.08186055,-0.037797250000000004,1273.5,-21.9211502,-395.032898
4321,4842,0.08443215,-0.0379913,1273.5,-26.7925167,-371.1513215
4322,4843,0.0842649,-0.036673750000000005,1273.5,-31.6638832,-347.26974500000006
4323,4844,0.0865356,-0.03565645,1273.5,-36.535251599999995,-323.388153
4324,4845,0.08308805,-0.03032995,1273.5,-41.406618099999996,-299.5065765
4325,4846,0.0819792,-0.0250127,1273.5,-46.277984599999996,-275.625
4326,4847,0.07739910000000001,-0.013768699999999998,1273.5,-51.14935299999999,-251.743416
4327,4848,0.07494029999999999,-0.0018357949999999999,1273.5,-56.0207195,-227.86183949999997
4328,4849,0.07758034999999999,-0.0427347,1273.5,-60.89208599999999,-203.98026249999998
4329,4850,0.07330790000000001,-0.03968225,1273.5,-65.7634525,-180.09868600000001
4330,4851,0.0719814,-0.038326700000000005,1273.5,-70.634819,-156.2171095
4331,4852,0.07106009999999999,-0.037138,1273.5,-75.50618739999999,-132.335529
4332,4853,0.07171430000000001,-0.0369057,1273.5,-80.377552,-108.45394885000002
4333,4854,0.07255265,-0.036691100000000004,1273.5,-85.2489166,-84.5723686
4334,4855,0.07385765,-0.03680935,1273.5,-90.120285,-60.69078825
4335,4856,0.0754653,-0.03697085,1248.5,-2.43568468,-490.559204
4336,4857,0.07693115,-0.0371441,1248.5,-7.307051179999999,-466.67762749999997
4337,4858,0.0789628,-0.03744805,1248.5,-12.1784177,-442.796051
4338,4859,0.08020905,-0.03741800000000001,1248.5,-17.049784199999998,-418.9144745
4339,4860,0.08241505,-0.0376559,1248.5,-21.9211502,-395.032898
4340,4861,0.08261784999999999,-0.03679065,1248.5,-26.7925167,-371.1513215
4341,4862,0.08418985,-0.03633765,1248.5,-31.6638832,-347.26974500000006
4342,4863,0.08147015,-0.032992850000000004,1248.5,-36.535251599999995,-323.388153
4343,4864,0.07966599999999999,-0.029861600000000002,1248.5,-41.406618099999996,-299.5065765
4344,4865,0.0727186,-0.021862549999999998,1248.5,-46.277984599999996,-275.625
4345,4866,0.06622865,-0.013227250000000001,1248.5,-51.14935299999999,-251.743416
4346,4867,0.062017050000000004,-0.000701813,1248.5,-56.0207195,-227.86183949999997
4347,4868,0.07749819999999999,-0.043230050000000006,1248.5,-60.89208599999999,-203.98026249999998
4348,4869,0.07462830000000001,-0.040871500000000005,1248.5,-65.7634525,-180.09868600000001
4349,4870,0.07242975,-0.03885395,1248.5,-70.634819,-156.2171095
4350,4871,0.07244135000000002,-0.0381139,1248.5,-75.50618739999999,-132.335529
4351,4872,0.07259125,-0.037474099999999996,1248.5,-80.377552,-108.45394885000002
4352,4873,0.07348215,-0.0372913,1248.5,-85.2489166,-84.5723686
4353,4874,0.07462279999999999,-0.0371909,1248.5,-90.120285,-60.69078825
4354,4875,0.07575509999999999,-0.037132200000000004,1223.5,-2.4356840876332786,-490.559204
4355,4876,0.0773663,-0.037219249999999995,1223.5,-7.307050825,-466.67762749999997
4356,4877,0.07841959999999999,-0.037044350000000004,1223.5,-12.178417465,-442.796051
4357,4878,0.08021915,-0.03713225,1223.5,-17.049784199999998,-418.9144745
4358,4879,0.08067080000000001,-0.03646615,1223.5,-21.921150675,-395.032898
4359,4880,0.08202155,-0.03621305,1223.5,-26.792517175,-371.1513215
4360,4881,0.08058975,-0.0341643,1223.5,-31.663883675,-347.26974500000006
4361,4882,0.07945015,-0.03255295,1223.5,-36.535251599999995,-323.388153
4362,4883,0.07352639999999999,-0.02738475,1223.5,-41.406618099999996,-299.5065765
4363,4884,0.0663139,-0.02194695,1223.5,-46.277984599999996,-275.625
4364,4885,0.05580435,-0.0118831,1223.5,-51.14935299999999,-251.743416
4365,4886,0.048416799999999996,-0.00036946949999999994,1223.5,-56.0207195,-227.86183949999997
4366,4887,0.0781434,-0.044046699999999994,1223.5,-60.89208599999999,-203.98026249999998
4367,4888,0.07435839999999999,-0.0410852,1223.5,-65.7634525,-180.09868600000001
4368,4889,0.0738315,-0.03989575,1223.5,-70.634819,-156.2171095
4369,4890,0.07334955000000001,-0.03885255,1223.5,-75.50618739999999,-132.335529
4370,4891,0.0737824,-0.0383197,1223.5,-80.377553925,-108.45394885000002
4371,4892,0.07439645,-0.03792305,1223.5,-85.248918525,-84.5723686
4372,4893,0.07509650000000001,-0.0375829,1223.5,-90.120285,-60.69078825
4373,4894,0.0761922,-0.037404,1023.6571349999999,90.120285,-60.690788250000004
4374,4895,0.07687905,-0.03700415,1023.6571349999999,85.248918525,-84.5723686
4375,4896,0.07816295,-0.036837049999999996,1023.6571349999999,80.377553925,-108.45394885000002
4376,4897,0.07851244999999998,-0.036125149999999995,1023.6571349999999,75.50618739999999,-132.335529
4377,4898,0.07953825,-0.035753650000000005,1023.6571349999999,70.634819,-156.2171095
4378,4899,0.07883570000000001,-0.03427475,1023.6571349999999,65.7634525,-180.098686
4379,4900,0.07834205,-0.03322415000000001,1023.6571349999999,60.892086,-203.9802625
4380,4901,0.07490525,-0.0301132,1023.6571349999999,56.0207195,-227.86183949999997
4381,4902,0.06985569999999999,-0.027301450000000005,1023.6571349999999,51.14935299999999,-251.74341599999997
4382,4903,0.059578900000000004,-0.020534200000000002,1023.6571349999999,46.277984599999996,-275.625
4383,4904,0.04656605,-0.01262355,1023.6571349999999,41.406618099999996,-299.5065765
4384,4905,0.0347065,0.000157644,1023.6571349999999,36.535251599999995,-323.388153
4385,4906,0.07648835,-0.043426,1023.6571349999999,31.663883674999997,-347.269745
4386,4907,0.07567854999999998,-0.04203435,1023.6571349999999,26.792517174999997,-371.1513215
4387,4908,0.07480400000000001,-0.040763499999999994,1023.6571349999999,21.921150674999996,-395.032898
4388,4909,0.0748112,-0.039909799999999995,1023.6571349999999,17.049784199999998,-418.9144745
4389,4910,0.07497994999999999,-0.0392642,1023.6571349999999,12.178417465,-442.796051
4390,4911,0.075205,-0.0386234,1023.6571349999999,7.307050824999999,-466.67762749999997
4391,4912,0.07578,-0.038184699999999995,1023.6571349999999,2.435684085,-490.559204
4392,4913,0.0760083,-0.03753150000000001,998.9714355,90.120285,-60.690788250000004
4393,4914,0.07673060000000001,-0.03709885,998.9714355,85.2489166,-84.5723686
4394,4915,0.07671855,-0.036217099999999995,998.9714355,80.377552,-108.45394885000002
4395,4916,0.07725135,-0.03560255,998.9714355,75.50618739999999,-132.335529
4396,4917,0.07657420000000001,-0.03421415,998.9714355,70.634819,-156.2171095
4397,4918,0.07615079999999999,-0.0331368,998.9714355,65.7634525,-180.098686
4398,4919,0.07394630000000002,-0.030848399999999998,998.9714355,60.892086,-203.9802625
4399,4920,0.07076245,-0.0288466,998.9714355,56.0207195,-227.86183949999997
4400,4921,0.06495435,-0.02501535,998.9714355,51.14935299999999,-251.74341599999997
4401,4922,0.054983649999999995,-0.0212722,998.9714355,46.277984599999996,-275.625
4402,4923,0.037767800000000004,-0.012226550000000001,998.9714355,41.406618099999996,-299.5065765
4403,4924,0.0202224,-0.00038526004149999995,998.9714355,36.535251599999995,-323.388153
4404,4925,0.07782485,-0.0442447,998.9714355,31.6638832,-347.269745
4405,4926,0.07704405,-0.0431302,998.9714355,26.7925167,-371.1513215
4406,4927,0.07655795,-0.041988349999999994,998.9714355,21.9211502,-395.032898
4407,4928,0.0764428,-0.041196250000000004,998.9714355,17.049784199999998,-418.9144745
4408,4929,0.0761656,-0.0402555,998.9714355,12.1784177,-442.796051
4409,4930,0.0762954,-0.039596450000000005,998.9714355,7.30705118,-466.67762749999997
4410,4931,0.07606355000000001,-0.038701150000000004,998.9714355,2.43568468,-490.559204
4411,4932,0.07628360000000001,-0.038051249999999995,974.285736,90.120285,-60.690788250000004
4412,4933,0.07585125000000001,-0.03699245,974.285736,85.2489166,-84.5723686
4413,4934,0.07587585,-0.0361704,974.285736,80.377552,-108.45394885000002
4414,4935,0.07487545000000001,-0.034703200000000003,974.285736,75.50618739999999,-132.335529
4415,4936,0.0741502,-0.0334579,974.285736,70.634819,-156.2171095
4416,4937,0.0720114,-0.03131365,974.285736,65.7634525,-180.098686
4417,4938,0.06943175000000001,-0.02931085,974.285736,60.892086,-203.9802625
4418,4939,0.0651696,-0.02627185,974.285736,56.0207195,-227.86183949999997
4419,4940,0.05847999999999999,-0.0231552,974.285736,51.14935299999999,-251.74341599999997
4420,4941,0.04977295,-0.0189714,974.285736,46.277984599999996,-275.625
4421,4942,0.03279975,-0.0143351,974.285736,41.406618099999996,-299.5065765
4422,4943,0.00333411,0.00018014669999999997,974.285736,36.535251599999995,-323.388153
4423,4944,0.0806886,-0.04611319999999999,974.285736,31.6638832,-347.269745
4424,4945,0.0791158,-0.044505800000000005,974.285736,26.7925167,-371.1513215
4425,4946,0.07878845000000001,-0.043630749999999996,974.285736,21.9211502,-395.032898
4426,4947,0.0778858,-0.04236005,974.285736,17.049784199999998,-418.9144745
4427,4948,0.07764159999999999,-0.0415054,974.285736,12.1784177,-442.796051
4428,4949,0.07699,-0.0403934,974.285736,7.30705118,-466.67762749999997
4429,4950,0.07683770000000001,-0.03958695,974.285736,2.43568468,-490.559204
4430,4951,0.0760951,-0.0384132,949.6000060000001,90.120285,-60.690788250000004
4431,4952,0.0757711,-0.0374938,949.6000060000001,85.2489166,-84.5723686
4432,4953,0.07450325,-0.0359912,949.6000060000001,80.377552,-108.45394885000002
4433,4954,0.07350715,-0.03469595,949.6000060000001,75.50618739999999,-132.335529
4434,4955,0.0711275,-0.0325726,949.6000060000001,70.634819,-156.2171095
4435,4956,0.0686045,-0.0305455,949.6000060000001,65.7634525,-180.098686
4436,4957,0.06428824999999999,-0.0275504,949.6000060000001,60.892086,-203.9802625
4437,4958,0.05876885,-0.0243655,949.6000060000001,56.0207195,-227.86183949999997
4438,4959,0.051219299999999995,-0.0204569,949.6000060000001,51.14935299999999,-251.74341599999997
4439,4960,0.039656449999999996,-0.0156337,949.6000060000001,46.277984599999996,-275.625
4440,4961,0.026542049999999998,-0.011484049999999999,949.6000060000001,41.406618099999996,-299.5065765
4441,4962,0.01723485,-0.00302543,949.6000060000001,36.535251599999995,-323.388153
4442,4963,0.06165135000000001,-0.035431199999999996,949.6000060000001,31.6638832,-347.269745
4443,4964,0.059554800000000005,-0.034228,949.6000060000001,26.7925167,-371.1513215
4444,4965,0.060231,-0.0345801,949.6000060000001,21.9211502,-395.032898
4445,4966,0.059834599999999995,-0.034329599999999995,949.6000060000001,17.049784199999998,-418.9144745
4446,4967,0.060178499999999996,-0.03449340000000001,949.6000060000001,12.1784177,-442.796051
4447,4968,0.06009835,-0.0344197,949.6000060000001,7.30705118,-466.67762749999997
4448,4969,0.0602434,-0.03446795,949.6000060000001,2.43568468,-490.559204
4449,4970,0.06029555,-0.034465850000000006,924.914276,90.120285,-60.690788250000004
4450,4971,0.06034865,-0.034456600000000004,924.914276,85.2489166,-84.5723686
4451,4972,0.0605256,-0.034525,924.914276,80.377552,-108.45394885000002
4452,4973,0.060475150000000005,-0.0344477,924.914276,75.50618739999999,-132.335529
4453,4974,0.0609054,-0.0346688,924.914276,70.634819,-156.2171095
4454,4975,0.0606148,-0.03443605,924.914276,65.7634525,-180.098686
4455,4976,0.06170345000000001,-0.03507105,924.914276,60.892086,-203.9802625
4456,4977,0.0606239,-0.034352049999999995,924.914276,56.0207195,-227.86183949999997
4457,4978,0.06284075,-0.035735,924.914276,51.14935299999999,-251.74341599999997
4458,4979,0.05740049999999999,-0.032177700000000004,924.914276,46.277984599999996,-275.625
4459,4980,0.05901675000000001,-0.032324450000000005,924.914276,41.406618099999996,-299.5065765
4460,4981,0.06836045,-0.018796149999999998,924.914276,36.535251599999995,-323.388153
4461,4982,0.059176999999999993,-0.03408725,924.914276,31.6638832,-347.269745
4462,4983,0.06007545,-0.034541749999999996,924.914276,26.7925167,-371.1513215
4463,4984,0.06003065,-0.034518599999999997,924.914276,21.9211502,-395.032898
4464,4985,0.060388700000000003,-0.034677349999999996,924.914276,17.049784199999998,-418.9144745
4465,4986,0.0603402,-0.034634,924.914276,12.1784177,-442.796051
4466,4987,0.0604741,-0.034671450000000006,924.914276,7.30705118,-466.67762749999997
4467,4988,0.06049495,-0.03465755000000001,924.914276,2.43568468,-490.559204
4468,4989,0.060576899999999996,-0.034664,900.2285764999999,90.120285,-60.690788250000004
4469,4990,0.0606491,-0.0346754,900.2285764999999,85.2489166,-84.5723686
4470,4991,0.06070695,-0.03466005,900.2285764999999,80.377552,-108.45394885000002
4471,4992,0.06083735,-0.034709399999999994,900.2285764999999,75.50618739999999,-132.335529
4472,4993,0.06086119999999999,-0.03465305,900.2285764999999,70.634819,-156.2171095
4473,4994,0.061123649999999995,-0.034805050000000004,900.2285764999999,65.7634525,-180.098686
4474,4995,0.0611225,-0.03467825,900.2285764999999,60.892086,-203.9802625
4475,4996,0.0619527,-0.035259200000000004,900.2285764999999,56.0207195,-227.86183949999997
4476,4997,0.062360250000000006,-0.035239900000000005,900.2285764999999,51.14935299999999,-251.74341599999997
4477,4998,0.0643595,-0.03674535,900.2285764999999,46.277984599999996,-275.625
4478,4999,0.0597493,-0.0326411,900.2285764999999,41.406618099999996,-299.5065765
4479,5000,0.033320749999999996,-0.00977979,900.2285764999999,36.535251599999995,-323.388153
4480,5001,0.05977735,-0.034354449999999995,900.2285764999999,31.6638832,-347.269745
4481,5002,0.06042159999999999,-0.03476975,900.2285764999999,26.7925167,-371.1513215
4482,5003,0.0604422,-0.034727499999999994,900.2285764999999,21.9211502,-395.032898
4483,5004,0.060698249999999995,-0.0348741,900.2285764999999,17.049784199999998,-418.9144745
4484,5005,0.060682099999999996,-0.034822549999999994,900.2285764999999,12.1784177,-442.796051
4485,5006,0.06077265,-0.03485415,900.2285764999999,7.30705118,-466.67762749999997
4486,5007,0.0608083,-0.03483505,900.2285764999999,2.43568468,-490.559204
4487,5008,0.06085915,-0.0348357,875.5428769999999,90.120285,-60.690788250000004
4488,5009,0.0609407,-0.0348392,875.5428769999999,85.2489166,-84.5723686
4489,5010,0.0609451,-0.03481185,875.5428769999999,80.377552,-108.45394885000002
4490,5011,0.06109405,-0.0348419,875.5428769999999,75.50618739999999,-132.335529
4491,5012,0.0609758,-0.034754400000000005,875.5428769999999,70.634819,-156.2171095
4492,5013,0.061303300000000005,-0.03485375,875.5428769999999,65.7634525,-180.098686
4493,5014,0.060905,-0.0346467,875.5428769999999,60.892086,-203.9802625
4494,5015,0.06200175,-0.0350795,875.5428769999999,56.0207195,-227.86183949999997
4495,5016,0.0613026,-0.03481735,875.5428769999999,51.14935299999999,-251.74341599999997
4496,5017,0.06459699999999999,-0.036140399999999996,875.5428769999999,46.277984599999996,-275.625
4497,5018,0.05362225,-0.0304324,875.5428769999999,41.406618099999996,-299.5065765
4498,5019,0.01706055,-0.00950891,875.5428769999999,36.535251599999995,-323.388153
4499,5020,0.06285985,-0.03617265,875.5428769999999,31.6638832,-347.269745
4500,5021,0.060746800000000004,-0.0348913,875.5428769999999,26.7925167,-371.1513215
4501,5022,0.0612713,-0.03519215,875.5428769999999,21.9211502,-395.032898
4502,5023,0.060845949999999996,-0.034911,875.5428769999999,17.049784199999998,-418.9144745
4503,5024,0.06112875,-0.0350544,875.5428769999999,12.1784177,-442.796051
4504,5025,0.0610363,-0.0349659,875.5428769999999,7.30705118,-466.67762749999997
4505,5026,0.0611472,-0.03500110000000001,875.5428769999999,2.43568468,-490.559204
4506,5027,0.061182799999999996,-0.0349844,850.8571469999999,90.120285,-60.690788250000004
4507,5028,0.061190499999999995,-0.03495525,850.8571469999999,85.2489166,-84.5723686
4508,5029,0.06132914999999999,-0.03499334999999999,850.8571469999999,80.377552,-108.45394885000002
4509,5030,0.061171649999999994,-0.03486775,850.8571469999999,75.50618739999999,-132.335529
4510,5031,0.06150605,-0.035009700000000005,850.8571469999999,70.634819,-156.2171095
4511,5032,0.0609291,-0.03464755,850.8571469999999,65.7634525,-180.098686
4512,5033,0.06179645,-0.035071450000000004,850.8571469999999,60.892086,-203.9802625
4513,5034,0.0599489,-0.03398805,850.8571469999999,56.0207195,-227.86183949999997
4514,5035,0.061709450000000006,-0.03484085,850.8571469999999,51.14935299999999,-251.74341599999997
4515,5036,0.05356375000000001,-0.03022785,850.8571469999999,46.277984599999996,-275.625
4516,5037,0.0502244,-0.0287014,850.8571469999999,41.406618099999996,-299.5065765
4517,5038,0.04140920000000001,-0.01459945,850.8571469999999,36.535251599999995,-323.388153
4518,5039,2.1952049999999997e-15,-7.627565e-16,850.8571469999999,31.6638832,-347.269745
4519,5040,2.23844e-15,-3.8137800000000006e-16,850.8571469999999,26.7925167,-371.1513215
4520,5041,1.8613699999999997e-15,-7.627564999999999e-16,850.8571469999999,21.9211502,-395.032898
4521,5042,3.42487e-15,-1.525515e-15,850.8571469999999,17.049784199999998,-418.9144745
4522,5043,3.725365e-15,-1.1441335e-15,850.8571469999999,12.1784177,-442.796051
4523,5044,3.28342e-15,-7.627565e-16,850.8571469999999,7.30705118,-466.67762749999997
4524,5045,2.1210700000000004e-15,-3.8137799999999996e-16,850.8571469999999,2.43568468,-490.559204
4525,5046,3.2947550000000004e-15,7.627565e-16,826.171417,90.120285,-60.690788250000004
4526,5047,4.2291e-15,7.627565e-16,826.171417,85.2489166,-84.5723686
4527,5048,1.0875065e-15,0.0,826.171417,80.377552,-108.45394885000002
4528,5049,3.605865e-15,1.144135e-15,826.171417,75.50618739999999,-132.335529
4529,5050,4.0814350000000004e-15,0.0,826.171417,70.634819,-156.2171095
4530,5051,4.116865e-15,0.0,826.171417,65.7634525,-180.098686
4531,5052,1.5727099999999999e-15,3.813785e-16,826.171417,60.892086,-203.9802625
4532,5053,4.1292949999999996e-15,2.28827e-15,826.171417,56.0207195,-227.86183949999997
4533,5054,3.20458e-15,0.0,826.171417,51.14935299999999,-251.74341599999997
4534,5055,2.9885599999999998e-15,0.0,826.171417,46.277984599999996,-275.625
4535,5056,3.27046e-15,-7.627565e-16,826.171417,41.406618099999996,-299.5065765
4536,5057,3.052285e-15,0.0,826.171417,36.535251599999995,-323.388153
4537,5058,1.88636e-15,-7.62757e-16,826.171417,31.6638832,-347.269745
4538,5059,1.59612e-15,-3.8137825000000007e-16,826.171417,26.7925167,-371.1513215
4539,5060,2.252715e-15,3.8137799999999996e-16,826.171417,21.9211502,-395.032898
4540,5061,5.350660000000001e-16,0.0,826.171417,17.049784199999998,-418.9144745
4541,5062,3.40047e-15,-1.52551e-15,826.171417,12.1784177,-442.796051
4542,5063,3.327555e-15,-1.5255149999999999e-15,826.171417,7.30705118,-466.67762749999997
4543,5064,2.02611e-15,0.0,826.171417,2.43568468,-490.559204
4544,5065,4.35657e-16,0.0,801.4857175,90.120285,-60.690788250000004
4545,5066,3.29409e-15,7.627565e-16,801.4857175,85.2489166,-84.5723686
4546,5067,2.36851e-16,0.0,801.4857175,80.377552,-108.45394885000002
4547,5068,3.33805e-15,-1.5255099999999998e-15,801.4857175,75.50618739999999,-132.335529
4548,5069,1.987645e-15,1.144135e-15,801.4857175,70.634819,-156.2171095
4549,5070,3.004675e-15,0.0,801.4857175,65.7634525,-180.098686
4550,5071,2.656985e-15,-1.525515e-15,801.4857175,60.892086,-203.9802625
4551,5072,1.0283355e-15,0.0,801.4857175,56.0207195,-227.86183949999997
4552,5073,2.400945e-15,-7.627565e-16,801.4857175,51.14935299999999,-251.74341599999997
4553,5074,3.3224499999999998e-15,-1.5255149999999999e-15,801.4857175,46.277984599999996,-275.625
4554,5075,1.4226899999999999e-15,-7.627565e-16,801.4857175,41.406618099999996,-299.5065765
4555,5076,2.690135e-15,-1.52551e-15,801.4857175,36.535251599999995,-323.388153
4556,5077,2.048755e-15,-7.627559999999999e-16,801.4857175,31.6638832,-347.269745
4557,5078,3.08604e-15,0.0,801.4857175,26.7925167,-371.1513215
4558,5079,1.7438e-15,-7.627565e-16,801.4857175,21.9211502,-395.032898
4559,5080,1.3595325e-15,3.813785e-16,801.4857175,17.049784199999998,-418.9144745
4560,5081,3.452495e-15,1.52551e-15,801.4857175,12.1784177,-442.796051
4561,5082,3.30908e-15,1.525515e-15,801.4857175,7.30705118,-466.67762749999997
4562,5083,2.125225e-15,-3.8137849999999997e-16,801.4857175,2.43568468,-490.559204
4563,5084,1.232238e-15,3.8137799999999996e-16,776.8000180000001,90.120285,-60.690788250000004
4564,5085,1.674265e-15,-7.627565e-16,776.8000180000001,85.2489166,-84.5723686
4565,5086,2.814035e-15,1.144135e-15,776.8000180000001,80.377552,-108.45394885000002
4566,5087,1.292165e-15,3.8137799999999996e-16,776.8000180000001,75.50618739999999,-132.335529
4567,5088,1.3335799999999999e-15,-7.627569999999999e-16,776.8000180000001,70.634819,-156.2171095
4568,5089,2.0001349999999995e-15,0.0,776.8000180000001,65.7634525,-180.098686
4569,5090,1.703375e-15,7.627565e-16,776.8000180000001,60.892086,-203.9802625
4570,5091,2.415565e-15,7.627565e-16,776.8000180000001,56.0207195,-227.86183949999997
4571,5092,2.7499499999999997e-15,1.525515e-15,776.8000180000001,51.14935299999999,-251.74341599999997
4572,5093,2.72335e-15,7.627565e-16,776.8000180000001,46.277984599999996,-275.625
4573,5094,1.345245e-15,-7.627565e-16,776.8000180000001,41.406618099999996,-299.5065765
4574,5095,1.4195899999999999e-15,-7.627565e-16,776.8000180000001,36.535251599999995,-323.388153
4575,5096,1.495145e-15,3.8137849999999997e-16,776.8000180000001,31.6638832,-347.269745
4576,5097,1.2111399999999998e-15,3.8137849999999997e-16,776.8000180000001,26.7925167,-371.1513215
4577,5098,1.0145755e-15,0.0,776.8000180000001,21.9211502,-395.032898
4578,5099,2.19311e-15,3.81378e-16,776.8000180000001,17.049784199999998,-418.9144745
4579,5100,1.869765e-15,-7.627565e-16,776.8000180000001,12.1784177,-442.796051
4580,5101,1.25279e-15,3.8137849999999997e-16,776.8000180000001,7.30705118,-466.67762749999997
4581,5102,1.264455e-15,3.8137799999999996e-16,776.8000180000001,2.43568468,-490.559204
4582,5103,2.18973e-15,3.81378e-16,752.1142880000001,90.120285,-60.690788250000004
4583,5104,1.005195e-15,0.0,752.1142880000001,85.2489166,-84.5723686
4584,5105,1.9937499999999997e-15,-1.144135e-15,752.1142880000001,80.377552,-108.45394885000002
4585,5106,1.278115e-15,3.81378e-16,752.1142880000001,75.50618739999999,-132.335529
4586,5107,3.994195e-15,1.52551e-15,752.1142880000001,70.634819,-156.2171095
4587,5108,2.41824e-15,7.627565e-16,752.1142880000001,65.7634525,-180.098686
4588,5109,1.88251e-15,-7.627565e-16,752.1142880000001,60.892086,-203.9802625
4589,5110,3.036655e-15,0.0,752.1142880000001,56.0207195,-227.86183949999997
4590,5111,1.3582349999999999e-15,7.627569999999999e-16,752.1142880000001,51.14935299999999,-251.74341599999997
4591,5112,2.4531249999999998e-15,7.627565e-16,752.1142880000001,46.277984599999996,-275.625
4592,5113,2.4074750000000003e-15,7.627565e-16,752.1142880000001,41.406618099999996,-299.5065765
4593,5114,1.77574e-15,7.627564999999999e-16,752.1142880000001,36.535251599999995,-323.388153
4594,5115,1.905305e-15,-7.62758e-16,752.1142880000001,31.6638832,-347.269745
4595,5116,4.0657099999999996e-15,-1.90689e-15,752.1142880000001,26.7925167,-371.1513215
4596,5117,1.1939100000000001e-15,0.0,752.1142880000001,21.9211502,-395.032898
4597,5118,2.0366849999999997e-15,0.0,752.1142880000001,17.049784199999998,-418.9144745
4598,5119,1.356615e-15,7.627565e-16,752.1142880000001,12.1784177,-442.796051
4599,5120,1.231282e-15,-3.8137849999999997e-16,752.1142880000001,7.30705118,-466.67762749999997
4600,5121,3.30999e-15,-1.52551e-15,752.1142880000001,2.43568468,-490.559204
4601,5122,1.029245e-15,0.0,727.4285580000001,90.120285,-60.690788250000004
4602,5123,7.60892e-16,3.8137799999999996e-16,727.4285580000001,85.2489166,-84.5723686
4603,5124,1.4550499999999998e-16,0.0,727.4285580000001,80.377552,-108.45394885000002
4604,5125,1.801965e-15,7.627569999999999e-16,727.4285580000001,75.50618739999999,-132.335529
4605,5126,1.43756e-15,-7.627565e-16,727.4285580000001,70.634819,-156.2171095
4606,5127,2.3983050000000002e-15,-7.627565e-16,727.4285580000001,65.7634525,-180.098686
4607,5128,3.3275650000000003e-15,-1.525515e-15,727.4285580000001,60.892086,-203.9802625
4608,5129,2.24765e-15,0.0,727.4285580000001,56.0207195,-227.86183949999997
4609,5130,1.371675e-15,7.627569999999999e-16,727.4285580000001,51.14935299999999,-251.74341599999997
4610,5131,2.2099799999999997e-15,-7.627565e-16,727.4285580000001,46.277984599999996,-275.625
4611,5132,2.57095e-16,0.0,727.4285580000001,41.406618099999996,-299.5065765
4612,5133,2.52308e-15,-7.627564999999999e-16,727.4285580000001,36.535251599999995,-323.388153
4613,5134,2.2092400000000004e-15,0.0,727.4285580000001,31.6638832,-347.269745
4614,5135,1.3326249999999998e-15,7.627565e-16,727.4285580000001,26.7925167,-371.1513215
4615,5136,2.239125e-15,3.8137849999999997e-16,727.4285580000001,21.9211502,-395.032898
4616,5137,2.915755e-15,1.1441349999999998e-15,727.4285580000001,17.049784199999998,-418.9144745
4617,5138,2.1368249999999998e-15,0.0,727.4285580000001,12.1784177,-442.796051
4618,5139,2.1412850000000002e-15,0.0,727.4285580000001,7.30705118,-466.67762749999997
4619,5140,4.063105e-15,0.0,727.4285580000001,2.43568468,-490.559204
4620,5141,6.643835e-16,-3.8137849999999997e-16,702.7428585,90.120285,-60.690788250000004
4621,5142,3.322135e-15,-1.525515e-15,702.7428585,85.2489166,-84.5723686
4622,5143,2.84464e-15,-1.1441344999999999e-15,702.7428585,80.377552,-108.45394885000002
4623,5144,1.34629e-15,-7.62757e-16,702.7428585,75.50618739999999,-132.335529
4624,5145,4.11691e-16,0.0,702.7428585,70.634819,-156.2171095
4625,5146,2.39754e-15,-7.62757e-16,702.7428585,65.7634525,-180.098686
4626,5147,2.4497599999999998e-15,-7.62757e-16,702.7428585,60.892086,-203.9802625
4627,5148,2.8815600000000002e-15,1.525515e-15,702.7428585,56.0207195,-227.86183949999997
4628,5149,4.003745e-16,0.0,702.7428585,51.14935299999999,-251.74341599999997
4629,5150,2.010415e-15,0.0,702.7428585,46.277984599999996,-275.625
4630,5151,1.358875e-15,7.627564999999998e-16,702.7428585,41.406618099999996,-299.5065765
4631,5152,3.4049099999999995e-15,-1.5255149999999999e-15,702.7428585,36.535251599999995,-323.388153
4632,5153,2.38365e-15,0.0,702.7428585,31.6638832,-347.269745
4633,5154,2.118465e-15,-3.813785e-16,702.7428585,26.7925167,-371.1513215
4634,5155,2.016295e-15,-7.627565e-16,702.7428585,21.9211502,-395.032898
4635,5156,1.0220845e-15,0.0,702.7428585,17.049784199999998,-418.9144745
4636,5157,1.0107599999999999e-15,0.0,702.7428585,12.1784177,-442.796051
4637,5158,2.690155e-15,-1.525515e-15,702.7428585,7.30705118,-466.67762749999997
4638,5159,8.329985e-16,-3.813785e-16,702.7428585,2.43568468,-490.559204
4639,5160,3.313325e-15,1.525515e-15,678.057159,90.120285,-60.690788250000004
4640,5161,2.645875e-15,1.52551e-15,678.057159,85.2489166,-84.5723686
4641,5162,4.51273e-15,1.1441350000000002e-15,678.057159,80.377552,-108.45394885000002
4642,5163,2.53028e-15,7.627565e-16,678.057159,75.50618739999999,-132.335529
4643,5164,3.3148199999999997e-15,1.525515e-15,678.057159,70.634819,-156.2171095
4644,5165,1.5711699999999999e-15,7.62757e-16,678.057159,65.7634525,-180.098686
4645,5166,4.7977050000000005e-15,1.5255149999999999e-15,678.057159,60.892086,-203.9802625
4646,5167,1.99437e-15,0.0,678.057159,56.0207195,-227.86183949999997
4647,5168,2.64292e-15,-1.52551e-15,678.057159,51.14935299999999,-251.74341599999997
4648,5169,1.3448099999999999e-15,-7.627565e-16,678.057159,46.277984599999996,-275.625
4649,5170,2.3661750000000002e-15,0.0,678.057159,41.406618099999996,-299.5065765
4650,5171,2.4148100000000003e-15,7.627565e-16,678.057159,36.535251599999995,-323.388153
4651,5172,0.10112080000000001,-0.02462655,678.057159,31.6638832,-347.269745
4652,5173,0.108149,-0.02450015,678.057159,26.7925167,-371.1513215
4653,5174,0.1171475,-0.025235800000000003,678.057159,21.9211502,-395.032898
4654,5175,0.125912,-0.0254274,678.057159,17.049784199999998,-418.9144745
4655,5176,0.135342,-0.0261085,678.057159,12.1784177,-442.796051
4656,5177,0.144457,-0.02658345,678.057159,7.30705118,-466.67762749999997
4657,5178,0.153795,-0.027261549999999996,678.057159,2.43568468,-490.559204
4658,5179,0.1629555,-0.0280546,653.371429,90.120285,-60.690788250000004
4659,5180,0.1721955,-0.028932349999999996,653.371429,85.2489166,-84.5723686
4660,5181,0.18135649999999998,-0.030312199999999997,653.371429,80.377552,-108.45394885000002
4661,5182,0.19052200000000002,-0.03172069999999999,653.371429,75.50618739999999,-132.335529
4662,5183,0.199684,-0.034176649999999996,653.371429,70.634819,-156.2171095
4663,5184,0.208844,-0.036587049999999996,653.371429,65.7634525,-180.098686
4664,5185,0.218179,-0.0408987,653.371429,60.892086,-203.9802625
4665,5186,0.228055,-0.0446834,653.371429,56.0207195,-227.86183949999997
4666,5187,0.2387625,-0.052432,653.371429,51.14935299999999,-251.74341599999997
4667,5188,0.25417749999999995,-0.05573845,653.371429,46.277984599999996,-275.625
4668,5189,0.27699,-0.0732546,653.371429,41.406618099999996,-299.5065765
4669,5190,0.3617365,-0.06277110000000001,653.371429,36.535251599999995,-323.388153
4670,5191,0.104051,-0.028299150000000002,653.371429,31.6638832,-347.269745
4671,5192,0.1119685,-0.0286017,653.371429,26.7925167,-371.1513215
4672,5193,0.1198375,-0.02863615,653.371429,21.9211502,-395.032898
4673,5194,0.12921850000000001,-0.02926435,653.371429,17.049784199999998,-418.9144745
4674,5195,0.137978,-0.029594099999999998,653.371429,12.1784177,-442.796051
4675,5196,0.147353,-0.030108500000000003,653.371429,7.30705118,-466.67762749999997
4676,5197,0.156334,-0.03056895,653.371429,2.43568468,-490.559204
4677,5198,0.165717,-0.03110415,628.685699,90.120285,-60.690788250000004
4678,5199,0.17485050000000002,-0.0318506,628.685699,85.2489166,-84.5723686
4679,5200,0.184394,-0.03262815,628.685699,80.377552,-108.45394885000002
4680,5201,0.1936985,-0.03397325,628.685699,75.50618739999999,-132.335529
4681,5202,0.2036065,-0.03533405,628.685699,70.634819,-156.2171095
4682,5203,0.2131105,-0.037771250000000006,628.685699,65.7634525,-180.098686
4683,5204,0.22411,-0.04031095,628.685699,60.892086,-203.9802625
4684,5205,0.2336335,-0.0444025,628.685699,56.0207195,-227.86183949999997
4685,5206,0.249856,-0.049139,628.685699,51.14935299999999,-251.74341599999997
4686,5207,0.257321,-0.05411675,628.685699,46.277984599999996,-275.625
4687,5208,0.30206,-0.05846615000000001,628.685699,41.406618099999996,-299.5065765
4688,5209,0.292765,-0.0159763,628.685699,36.535251599999995,-323.388153
4689,5210,0.1089965,-0.033495,628.685699,31.6638832,-347.269745
4690,5211,0.11511099999999999,-0.03259675,628.685699,26.7925167,-371.1513215
4691,5212,0.12394050000000001,-0.032808050000000005,628.685699,21.9211502,-395.032898
4692,5213,0.13206650000000003,-0.032978049999999995,628.685699,17.049784199999998,-418.9144745
4693,5214,0.1411705,-0.03327785,628.685699,12.1784177,-442.796051
4694,5215,0.1497525,-0.03348395,628.685699,7.30705118,-466.67762749999997
4695,5216,0.15892,-0.03369945,628.685699,2.43568468,-490.559204
4696,5217,0.1677315,-0.03393215,604.0,90.120285,-60.690788250000004
4697,5218,0.1771165,-0.034169,604.0,85.2489166,-84.5723686
4698,5219,0.1861275,-0.03456635,604.0,80.377552,-108.45394885000002
4699,5220,0.195961,-0.0349748,604.0,75.50618739999999,-132.335529
4700,5221,0.2051865,-0.03574505,604.0,70.634819,-156.2171095
4701,5222,0.2159905,-0.03665765,604.0,65.7634525,-180.098686
4702,5223,0.22537549999999998,-0.037886550000000005,604.0,60.892086,-203.9802625
4703,5224,0.23903999999999997,-0.0402155,604.0,56.0207195,-227.86183949999997
4704,5225,0.24772899999999998,-0.04009365,604.0,51.14935299999999,-251.74341599999997
4705,5226,0.2713945,-0.0456378,604.0,46.277984599999996,-275.625
4706,5227,0.26924349999999997,-0.02538825,604.0,41.406618099999996,-299.5065765
4707,5228,0.2558905,-0.010352150000000001,604.0,36.535251599999995,-323.388153
4708,5229,0.1125295,-0.03870385,604.0,31.6638832,-347.269745
4709,5230,0.12015700000000001,-0.03757755,604.0,26.7925167,-371.1513215
4710,5231,0.1273755,-0.037257,604.0,21.9211502,-395.032898
4711,5232,0.135786,-0.0370757,604.0,17.049784199999998,-418.9144745
4712,5233,0.143792,-0.037038549999999996,604.0,12.1784177,-442.796051
4713,5234,0.152449,-0.0369214,604.0,7.30705118,-466.67762749999997
4714,5235,0.16078599999999998,-0.0368038,604.0,2.43568468,-490.559204
4715,5236,0.16968450000000002,-0.0366364,579.314301,90.120285,-60.690788250000004
4716,5237,0.178194,-0.0364023,579.314301,85.2489166,-84.5723686
4717,5238,0.1874305,-0.0361519,579.314301,80.377552,-108.45394885000002
4718,5239,0.19600800000000002,-0.03575085,579.314301,75.50618739999999,-132.335529
4719,5240,0.205874,-0.035406450000000006,579.314301,70.634819,-156.2171095
4720,5241,0.2144705,-0.0346461,579.314301,65.7634525,-180.098686
4721,5242,0.22563450000000002,-0.0343752,579.314301,60.892086,-203.9802625
4722,5243,0.2342685,-0.0319512,579.314301,56.0207195,-227.86183949999997
4723,5244,0.2474365,-0.03214515,579.314301,51.14935299999999,-251.74341599999997
4724,5245,0.25670400000000004,-0.020543899999999997,579.314301,46.277984599999996,-275.625
4725,5246,0.25442600000000004,-0.020189199999999997,579.314301,41.406618099999996,-299.5065765
4726,5247,0.236089,-0.00150301,579.314301,36.535251599999995,-323.388153
4727,5248,0.11796699999999999,-0.0444341,579.314301,31.6638832,-347.269745
4728,5249,0.1243215,-0.043065,579.314301,26.7925167,-371.1513215
4729,5250,0.1315535,-0.04188885,579.314301,21.9211502,-395.032898
4730,5251,0.13889200000000002,-0.0414384,579.314301,17.049784199999998,-418.9144745
4731,5252,0.146752,-0.0408459,579.314301,12.1784177,-442.796051
4732,5253,0.1545705,-0.0404669,579.314301,7.30705118,-466.67762749999997
4733,5254,0.1628175,-0.039982500000000004,579.314301,2.43568468,-490.559204
4734,5255,0.1708195,-0.0394274,554.6285710000001,90.120285,-60.690788250000004
4735,5256,0.17929,-0.03882045,554.6285710000001,85.2489166,-84.5723686
4736,5257,0.1872025,-0.03785015,554.6285710000001,80.377552,-108.45394885000002
4737,5258,0.1958685,-0.036886100000000005,554.6285710000001,75.50618739999999,-132.335529
4738,5259,0.20341199999999998,-0.03506865000000001,554.6285710000001,70.634819,-156.2171095
4739,5260,0.212387,-0.0333985,554.6285710000001,65.7634525,-180.098686
4740,5261,0.2193345,-0.029718,554.6285710000001,60.892086,-203.9802625
4741,5262,0.2280665,-0.02662325,554.6285710000001,56.0207195,-227.86183949999997
4742,5263,0.23498199999999997,-0.017966299999999998,554.6285710000001,51.14935299999999,-251.74341599999997
4743,5264,0.2356375,-0.0107503,554.6285710000001,46.277984599999996,-275.625
4744,5265,0.24732750000000003,0.0038436750000000004,554.6285710000001,41.406618099999996,-299.5065765
4745,5266,0.2216595,0.00260862,554.6285710000001,36.535251599999995,-323.388153
4746,5267,0.122474,-0.050430649999999994,554.6285710000001,31.6638832,-347.269745
4747,5268,0.128237,-0.04784605,554.6285710000001,26.7925167,-371.1513215
4748,5269,0.13502350000000002,-0.0466957,554.6285710000001,21.9211502,-395.032898
4749,5270,0.1418855,-0.04540105,554.6285710000001,17.049784199999998,-418.9144745
4750,5271,0.1492705,-0.0447447,554.6285710000001,12.1784177,-442.796051
4751,5272,0.15682000000000001,-0.043957899999999994,554.6285710000001,7.30705118,-466.67762749999997
4752,5273,0.164441,-0.04328745,554.6285710000001,2.43568468,-490.559204
4753,5274,0.17222300000000001,-0.042530250000000006,529.942841,90.120285,-60.690788250000004
4754,5275,0.1796915,-0.041473350000000006,529.942841,85.2489166,-84.5723686
4755,5276,0.187364,-0.040389850000000005,529.942841,80.377552,-108.45394885000002
4756,5277,0.194219,-0.038437200000000005,529.942841,75.50618739999999,-132.335529
4757,5278,0.201427,-0.0365476,529.942841,70.634819,-156.2171095
4758,5279,0.20697150000000003,-0.032694749999999995,529.942841,65.7634525,-180.098686
4759,5280,0.21295550000000002,-0.0289858,529.942841,60.892086,-203.9802625
4760,5281,0.2161515,-0.02125475,529.942841,56.0207195,-227.86183949999997
4761,5282,0.21772249999999999,-0.012972250000000001,529.942841,51.14935299999999,-251.74341599999997
4762,5283,0.21835500000000002,-0.000279977,529.942841,46.277984599999996,-275.625
4763,5284,0.211661,0.018538650000000004,529.942841,41.406618099999996,-299.5065765
4764,5285,0.2264645,0.030923799999999998,529.942841,36.535251599999995,-323.388153
4765,5286,0.09353385,-0.0275283,529.942841,31.6638832,-347.269745
4766,5287,0.10046105000000001,-0.0275283,529.942841,26.7925167,-371.1513215
4767,5288,0.1075305,-0.0275283,529.942841,21.9211502,-395.032898
4768,5289,0.1147165,-0.0275283,529.942841,17.049784199999998,-418.9144745
4769,5290,0.121998,-0.0275283,529.942841,12.1784177,-442.796051
4770,5291,0.12936,-0.0275283,529.942841,7.30705118,-466.67762749999997
4771,5292,0.1367875,-0.0275283,529.942841,2.43568468,-490.559204
4772,5293,0.1442725,-0.0275283,505.25712599999997,90.120285,-60.690788250000004
4773,5294,0.1518045,-0.0275283,505.25712599999997,85.2489166,-84.5723686
4774,5295,0.15937850000000003,-0.0275283,505.25712599999997,80.377552,-108.45394885000002
4775,5296,0.166988,-0.0275283,505.25712599999997,75.50618739999999,-132.335529
4776,5297,0.1746285,-0.0275283,505.25712599999997,70.634819,-156.2171095
4777,5298,0.182296,-0.0275283,505.25712599999997,65.7634525,-180.098686
4778,5299,0.18998700000000002,-0.0275283,505.25712599999997,60.892086,-203.9802625
4779,5300,0.1976995,-0.0275283,505.25712599999997,56.0207195,-227.86183949999997
4780,5301,0.20543050000000002,-0.0275283,505.25712599999997,51.14935299999999,-251.74341599999997
4781,5302,0.21317799999999998,-0.0275283,505.25712599999997,46.277984599999996,-275.625
4782,5303,0.22094049999999998,-0.0275283,505.25712599999997,41.406618099999996,-299.5065765
4783,5304,0.22871650000000004,-0.0275283,505.25712599999997,36.535251599999995,-323.388153
4784,5305,0.09582925,-0.02340115,505.25712599999997,31.6638832,-347.269745
4785,5306,0.09399555,-0.02320725,505.25712599999997,26.7925167,-371.1513215
4786,5307,0.101604,-0.0327763,505.25712599999997,21.9211502,-395.032898
4787,5308,0.10066385,-0.0288233,505.25712599999997,17.049784199999998,-418.9144745
4788,5309,0.107182,-0.041749400000000006,505.25712599999997,12.1784177,-442.796051
4789,5310,0.1060525,-0.03655785,505.25712599999997,7.30705118,-466.67762749999997
4790,5311,0.11283249999999999,-0.050090699999999995,505.25712599999997,2.43568468,-490.559204
4791,5312,0.1093855,-0.0431481,480.5714264999999,90.120285,-60.690788250000004
4792,5313,0.11600949999999999,-0.0574743,480.5714264999999,85.2489166,-84.5723686
4793,5314,0.1100725,-0.046968499999999996,480.5714264999999,80.377552,-108.45394885000002
4794,5315,0.11134300000000001,-0.05886055,480.5714264999999,75.50618739999999,-132.335529
4795,5316,0.116081,-0.052517049999999996,480.5714264999999,70.634819,-156.2171095
4796,5317,0.080057,-0.0275283,480.5714264999999,65.7634525,-180.098686
4797,5318,0.08671505000000002,-0.0275283,480.5714264999999,60.892086,-203.9802625
4798,5319,1.33198e-15,0.0,480.5714264999999,56.0207195,-227.86183949999997
4799,5320,3.96671e-15,-2.28827e-15,480.5714264999999,51.14935299999999,-251.74341599999997
4800,5321,2.711325e-15,-7.627569999999999e-16,480.5714264999999,46.277984599999996,-275.625
4801,5322,1.671835e-15,-7.627565e-16,480.5714264999999,41.406618099999996,-299.5065765
4802,5323,1.322905e-15,7.627565e-16,480.5714264999999,36.535251599999995,-323.388153
4803,5324,1.6688499999999999e-15,7.627565e-16,480.5714264999999,31.6638832,-347.269745
4804,5325,1.69763e-15,-7.627565e-16,480.5714264999999,26.7925167,-371.1513215
4805,5326,1.5259000000000002e-15,0.0,480.5714264999999,21.9211502,-395.032898
4806,5327,1.8059299999999997e-15,-7.627569999999999e-16,480.5714264999999,17.049784199999998,-418.9144745
4807,5328,5.371195e-16,0.0,480.5714264999999,12.1784177,-442.796051
4808,5329,2.01927e-15,0.0,480.5714264999999,7.30705118,-466.67762749999997
4809,5330,2.40742e-15,7.627565e-16,480.5714264999999,2.43568468,-490.559204
4810,5331,1.43865e-15,7.627569999999999e-16,455.88571199999996,90.120285,-60.690788250000004
4811,5332,3.4003299999999998e-15,1.5255099999999998e-15,455.88571199999996,85.2489166,-84.5723686
4812,5333,0.133779,-0.017917850000000003,455.88571199999996,80.377552,-108.45394885000002
4813,5334,0.1387445,-0.029482300000000003,455.88571199999996,75.50618739999999,-132.335529
4814,5335,0.1575905,-0.027129050000000002,455.88571199999996,70.634819,-156.2171095
4815,5336,0.161115,-0.02779785,455.88571199999996,65.7634525,-180.098686
4816,5337,0.1716705,-0.0271494,455.88571199999996,60.892086,-203.9802625
4817,5338,0.1831635,-0.028273,455.88571199999996,56.0207195,-227.86183949999997
4818,5339,0.17313050000000002,-0.02470515,455.88571199999996,51.14935299999999,-251.74341599999997
4819,5340,0.09851315,-0.02408815,455.88571199999996,46.277984599999996,-275.625
4820,5341,0.1091405,-0.03649055,455.88571199999996,41.406618099999996,-299.5065765
4821,5342,0.120064,-0.0349716,455.88571199999996,36.535251599999995,-323.388153
4822,5343,0.12260599999999999,-0.03549885,455.88571199999996,31.6638832,-347.269745
4823,5344,0.12924850000000002,-0.035741049999999996,455.88571199999996,26.7925167,-371.1513215
4824,5345,0.13981100000000002,-0.0369705,455.88571199999996,21.9211502,-395.032898
4825,5346,0.1321405,-0.0337603,455.88571199999996,17.049784199999998,-418.9144745
4826,5347,0.06934169999999999,-0.02881185,455.88571199999996,12.1784177,-442.796051
4827,5348,0.08723195,-0.0415535,455.88571199999996,7.30705118,-466.67762749999997
4828,5349,0.0889994,-0.039111400000000004,455.88571199999996,2.43568468,-490.559204
4829,5350,0.0914322,-0.04081385,431.199997,90.120285,-60.690788250000004
4830,5351,0.0961823,-0.04175845,431.199997,85.2489166,-84.5723686
4831,5352,0.10328794999999999,-0.04412565,431.199997,80.377552,-108.45394885000002
4832,5353,0.09707725,-0.04017695,431.199997,75.50618739999999,-132.335529
4833,5354,0.05586265,-0.031767050000000005,431.199997,70.634819,-156.2171095
4834,5355,0.07821499999999999,-0.04475285,431.199997,65.7634525,-180.098686
4835,5356,0.07727719999999999,-0.0438061,431.199997,60.892086,-203.9802625
4836,5357,0.0793521,-0.0444892,431.199997,56.0207195,-227.86183949999997
4837,5358,0.0779135,-0.04354655,431.199997,51.14935299999999,-251.74341599999997
4838,5359,0.07947155,-0.04468905,431.199997,46.277984599999996,-275.625
4839,5360,0.07126735000000001,-0.040517449999999997,431.199997,41.406618099999996,-299.5065765
4840,5361,0.06146855,-0.03275235,431.199997,36.535251599999995,-323.388153
4841,5362,0.09735435,-0.054297,431.199997,31.6638832,-347.269745
4842,5363,0.08828050000000001,-0.04909355,431.199997,26.7925167,-371.1513215
4843,5364,0.0804838,-0.0445601,431.199997,21.9211502,-395.032898
4844,5365,0.07342525,-0.0395498,431.199997,17.049784199999998,-418.9144745
4845,5366,0.0734022,-0.037440299999999996,431.199997,12.1784177,-442.796051
4846,5367,0.06569355,-0.031202150000000005,431.199997,7.30705118,-466.67762749999997
4847,5368,0.07390765,-0.03170065,431.199997,2.43568468,-490.559204
4848,5369,0.09828965,-0.053967299999999996,406.514282,90.120285,-60.690788250000004
4849,5370,0.0915059,-0.0468945,406.514282,85.2489166,-84.5723686
4850,5371,0.08244459999999999,-0.03756675,406.514282,80.377552,-108.45394885000002
4851,5372,0.08346699999999999,-0.033824400000000004,406.514282,75.50618739999999,-132.335529
4852,5373,0.08048765,-0.025559050000000003,406.514282,70.634819,-156.2171095
4853,5374,0.08091860000000001,-0.0185325,406.514282,65.7634525,-180.098686
4854,5431,2.061305e-15,0.0,406.514282,60.892086,-203.9802625
4855,5432,1.71027e-15,7.627565e-16,406.514282,56.0207195,-227.86183949999997
4856,5433,3.068695e-15,-3.8137849999999997e-16,406.514282,51.14935299999999,-251.74341599999997
4857,5434,3.2732999999999998e-15,7.627564999999999e-16,406.514282,46.277984599999996,-275.625
4858,5435,2.13928e-15,0.0,406.514282,41.406618099999996,-299.5065765
4859,5436,1.52566e-15,7.627565e-16,406.514282,36.535251599999995,-323.388153
4860,5437,3.4969e-15,-1.525515e-15,406.514282,31.6638832,-347.269745
4861,5438,2.005965e-15,-7.627565e-16,406.514282,26.7925167,-371.1513215
4862,5439,1.06663e-15,0.0,406.514282,21.9211502,-395.032898
4863,5440,2.059505e-15,0.0,406.514282,17.049784199999998,-418.9144745
4864,5441,2.7127600000000003e-15,-7.627565e-16,406.514282,12.1784177,-442.796051
4865,5442,1.529045e-15,0.0,406.514282,7.30705118,-466.67762749999997
4866,5443,2.833765e-15,-1.52551e-15,406.514282,2.43568468,-490.559204
4867,5444,1.1861105e-15,0.0,381.82856749999996,90.120285,-60.690788250000004
4868,5445,1.18835e-15,0.0,381.82856749999996,85.2489166,-84.5723686
4869,5446,4.04015e-15,2.28827e-15,381.82856749999996,80.377552,-108.45394885000002
4870,5447,1.1148109999999999e-15,0.0,381.82856749999996,75.50618739999999,-132.335529
4871,5448,2.14135e-15,0.0,381.82856749999996,70.634819,-156.2171095
4872,5449,2.531745e-15,-7.627565e-16,381.82856749999996,65.7634525,-180.098686
4873,5450,2.8314700000000002e-15,-1.1441349999999998e-15,381.82856749999996,60.892086,-203.9802625
4874,5451,1.6869549999999998e-15,7.62755e-16,381.82856749999996,56.0207195,-227.86183949999997
4875,5452,1.044745e-15,0.0,381.82856749999996,51.14935299999999,-251.74341599999997
4876,5453,1.342945e-15,-7.627565e-16,381.82856749999996,46.277984599999996,-275.625
4877,5454,1.6601549999999999e-15,7.627565e-16,381.82856749999996,41.406618099999996,-299.5065765
4878,5455,1.7060149999999998e-15,-7.627565e-16,381.82856749999996,36.535251599999995,-323.388153
4879,5456,1.227573e-15,0.0,381.82856749999996,31.6638832,-347.269745
4880,5457,1.3562900000000002e-15,-7.627569999999999e-16,381.82856749999996,26.7925167,-371.1513215
4881,5458,1.7073100000000001e-15,-7.627565e-16,381.82856749999996,21.9211502,-395.032898
4882,5459,3.010415e-16,0.0,381.82856749999996,17.049784199999998,-418.9144745
4883,5460,1.87896e-15,7.627564999999999e-16,381.82856749999996,12.1784177,-442.796051
4884,5461,1.0984699999999999e-15,0.0,381.82856749999996,7.30705118,-466.67762749999997
4885,5462,2.659445e-15,1.5255149999999999e-15,381.82856749999996,2.43568468,-490.559204
4886,5463,1.8728200000000003e-15,7.627565e-16,357.142853,90.120285,-60.690788250000004
4887,5464,3.2852249999999997e-15,7.627565e-16,357.142853,85.2489166,-84.5723686
4888,5465,3.565795e-15,7.627565e-16,357.142853,80.377552,-108.45394885000002
4889,5466,1.673335e-15,-7.627565e-16,357.142853,75.50618739999999,-132.335529
4890,5467,2.835105e-15,1.525515e-15,357.142853,70.634819,-156.2171095
4891,5468,3.05677e-15,1.525515e-15,357.142853,65.7634525,-180.098686
4892,5469,1.6798e-16,0.0,357.142853,60.892086,-203.9802625
4893,5470,2.052785e-15,0.0,357.142853,56.0207195,-227.86183949999997
4894,5471,1.66862e-15,-7.627564999999999e-16,357.142853,51.14935299999999,-251.74341599999997
4895,5472,2.4751099999999997e-16,0.0,357.142853,46.277984599999996,-275.625
4896,5473,4.08922e-15,2.2882699999999996e-15,357.142853,41.406618099999996,-299.5065765
4897,5474,2.41143e-15,-7.627569999999999e-16,357.142853,36.535251599999995,-323.388153
4898,5475,3.9336949999999996e-16,0.0,357.142853,31.6638832,-347.269745
4899,5476,2.41821e-15,-7.627565e-16,357.142853,26.7925167,-371.1513215
4900,5477,1.4575299999999998e-15,7.627565e-16,357.142853,21.9211502,-395.032898
4901,5478,1.78048e-15,-7.62757e-16,357.142853,17.049784199999998,-418.9144745
4902,5479,9.60405e-17,0.0,357.142853,12.1784177,-442.796051
4903,5480,1.77098e-15,7.627565e-16,357.142853,7.30705118,-466.67762749999997
4904,5481,2.900975e-15,1.5255099999999998e-15,357.142853,2.43568468,-490.559204
4905,5482,1.67292e-15,7.627570000000001e-16,332.457138,90.120285,-60.690788250000004
4906,5483,1.68706e-15,-7.62758e-16,332.457138,85.2489166,-84.5723686
4907,5484,1.70609e-15,7.627565e-16,332.457138,80.377552,-108.45394885000002
4908,5485,3.96353e-15,2.28827e-15,332.457138,75.50618739999999,-132.335529
4909,5486,2.436075e-15,7.627569999999999e-16,332.457138,70.634819,-156.2171095
4910,5487,3.09092e-15,-1.525515e-15,332.457138,65.7634525,-180.098686
4911,5488,1.0363025e-15,0.0,332.457138,60.892086,-203.9802625
4912,5489,2.6622699999999998e-15,-1.5255099999999998e-15,332.457138,56.0207195,-227.86183949999997
4913,5490,1.3394500000000001e-15,7.627565e-16,332.457138,51.14935299999999,-251.74341599999997
4914,5491,1.7674400000000002e-15,-7.627565e-16,332.457138,46.277984599999996,-275.625
4915,5492,2.52862e-15,7.627570000000001e-16,332.457138,41.406618099999996,-299.5065765
4916,5493,1.8969699999999997e-15,-7.627565e-16,332.457138,36.535251599999995,-323.388153
4917,5494,1.7173749999999998e-15,7.627569999999999e-16,332.457138,31.6638832,-347.269745
4918,5495,2.89174e-15,-1.52551e-15,332.457138,26.7925167,-371.1513215
4919,5496,1.245e-15,0.0,332.457138,21.9211502,-395.032898
4920,5497,2.45357e-15,-7.627565e-16,332.457138,17.049784199999998,-418.9144745
4921,5498,2.40856e-15,-7.627565e-16,332.457138,12.1784177,-442.796051
4922,5499,1.825375e-15,-7.627565e-16,332.457138,7.30705118,-466.67762749999997
4923,5500,1.418575e-15,-7.627565e-16,332.457138,2.43568468,-490.559204
4924,5501,2.021515e-15,0.0,307.771423,90.120285,-60.690788250000004
4925,5502,1.2253e-15,0.0,307.771423,85.2489166,-84.5723686
4926,5503,2.1228399999999996e-15,0.0,307.771423,80.377552,-108.45394885000002
4927,5504,4.032005e-15,-1.5255149999999999e-15,307.771423,75.50618739999999,-132.335529
4928,5505,2.660235e-15,-1.5255149999999999e-15,307.771423,70.634819,-156.2171095
4929,5506,1.9401950000000004e-15,-7.627565e-16,307.771423,65.7634525,-180.098686
4930,5507,1.044998e-15,0.0,307.771423,60.892086,-203.9802625
4931,5508,1.3396e-15,-7.627565e-16,307.771423,56.0207195,-227.86183949999997
4932,5509,1.32918e-15,-7.627565e-16,307.771423,51.14935299999999,-251.74341599999997
4933,5510,1.0152980000000001e-15,0.0,307.771423,46.277984599999996,-275.625
4934,5511,2.45318e-15,7.627565e-16,307.771423,41.406618099999996,-299.5065765
4935,5512,2.22553e-15,0.0,307.771423,36.535251599999995,-323.388153
4936,5513,1.3245350000000001e-15,0.0,307.771423,31.6638832,-347.269745
4937,5514,2.851e-15,-1.52551e-15,307.771423,26.7925167,-371.1513215
4938,5515,1.7174249999999999e-15,-7.627565e-16,307.771423,21.9211502,-395.032898
4939,5516,2.65511e-15,1.525515e-15,307.771423,17.049784199999998,-418.9144745
4940,5517,1.67517e-15,-7.627565e-16,307.771423,12.1784177,-442.796051
4941,5518,1.7807e-15,-7.627565e-16,307.771423,7.30705118,-466.67762749999997
4942,5519,1.19459e-15,0.0,307.771423,2.43568468,-490.559204
4943,5520,4.500295e-15,2.28827e-15,283.0857085,90.120285,-60.690788250000004
4944,5521,3.7138e-16,0.0,283.0857085,85.2489166,-84.5723686
4945,5522,1.0163450000000001e-15,0.0,283.0857085,80.377552,-108.45394885000002
4946,5523,1.69862e-15,7.627564999999999e-16,283.0857085,75.50618739999999,-132.335529
4947,5524,1.785675e-15,-7.627569999999999e-16,283.0857085,70.634819,-156.2171095
4948,5525,2.664665e-15,7.627565e-16,283.0857085,65.7634525,-180.098686
4949,5526,1.65979e-15,-7.627565e-16,283.0857085,60.892086,-203.9802625
4950,5527,5.928815e-16,0.0,283.0857085,56.0207195,-227.86183949999997
4951,5528,1.349785e-15,0.0,283.0857085,51.14935299999999,-251.74341599999997
4952,5529,2.85082e-15,-1.5255149999999999e-15,283.0857085,46.277984599999996,-275.625
4953,5530,2.713455e-15,-7.627565e-16,283.0857085,41.406618099999996,-299.5065765
4954,5531,1.42448e-15,7.627569999999999e-16,283.0857085,36.535251599999995,-323.388153
4955,5532,3.97488e-15,-2.28827e-15,283.0857085,31.6638832,-347.269745
4956,5533,1.66457e-15,-7.627565e-16,283.0857085,26.7925167,-371.1513215
4957,5534,2.46424e-15,-7.627569999999999e-16,283.0857085,21.9211502,-395.032898
4958,5535,1.0758859999999997e-15,0.0,283.0857085,17.049784199999998,-418.9144745
4959,5536,2.957945e-15,-1.525515e-15,283.0857085,12.1784177,-442.796051
4960,5537,3.2691949999999997e-15,-1.5255149999999999e-15,283.0857085,7.30705118,-466.67762749999997
4961,5538,1.0188085e-15,0.0,283.0857085,2.43568468,-490.559204
4962,5539,2.9546299999999997e-15,-1.5255149999999999e-15,258.40000150000003,90.120285,-60.690788250000004
4963,5540,1.1912500000000002e-15,0.0,258.40000150000003,85.2489166,-84.5723686
4964,5541,1.0822865e-15,0.0,258.40000150000003,80.377552,-108.45394885000002
4965,5542,4.33122e-15,7.627565e-16,258.40000150000003,75.50618739999999,-132.335529
4966,5543,2.64164e-16,0.0,258.40000150000003,70.634819,-156.2171095
4967,5544,1.04905e-15,0.0,258.40000150000003,65.7634525,-180.098686
4968,5545,1.37588e-15,7.627564999999999e-16,258.40000150000003,60.892086,-203.9802625
4969,5546,1.7002250000000001e-15,-7.627569999999999e-16,258.40000150000003,56.0207195,-227.86183949999997
4970,5547,2.45281e-15,-7.627564999999999e-16,258.40000150000003,51.14935299999999,-251.74341599999997
4971,5548,1.41601e-15,7.627564999999999e-16,258.40000150000003,46.277984599999996,-275.625
4972,5549,1.6707449999999999e-15,-7.627565e-16,258.40000150000003,41.406618099999996,-299.5065765
4973,5550,1.9941e-15,0.0,258.40000150000003,36.535251599999995,-323.388153
4974,5551,2.06842e-15,0.0,258.40000150000003,31.6638832,-347.269745
4975,5552,2.4092349999999998e-15,7.627565e-16,258.40000150000003,26.7925167,-371.1513215
4976,5553,1.0295555000000001e-15,0.0,258.40000150000003,21.9211502,-395.032898
4977,5554,3.7359900000000003e-16,0.0,258.40000150000003,17.049784199999998,-418.9144745
4978,5555,2.4080450000000003e-15,7.627565e-16,258.40000150000003,12.1784177,-442.796051
4979,5556,2.58581e-15,-7.627569999999999e-16,258.40000150000003,7.30705118,-466.67762749999997
4980,5557,1.434855e-15,7.627565e-16,258.40000150000003,2.43568468,-490.559204
4981,5558,2.00891e-15,0.0,233.71428650000001,90.120285,-60.690788250000004
4982,5559,4.732084999999999e-15,0.0,233.71428650000001,85.2489166,-84.5723686
4983,5560,3.3209600000000002e-15,-1.525515e-15,233.71428650000001,80.377552,-108.45394885000002
4984,5561,2.84733e-15,-7.627564999999999e-16,233.71428650000001,75.50618739999999,-132.335529
4985,5562,2.51192e-15,-7.627564999999998e-16,233.71428650000001,70.634819,-156.2171095
4986,5563,1.38539e-15,-7.627569999999999e-16,233.71428650000001,65.7634525,-180.098686
4987,5564,0.3204055,0.0500183,233.71428650000001,60.892086,-203.9802625
4988,5565,0.22185149999999998,0.05947655,233.71428650000001,56.0207195,-227.86183949999997
4989,5566,0.18212050000000002,0.043927350000000004,233.71428650000001,51.14935299999999,-251.74341599999997
4990,5567,0.153964,0.044048899999999995,233.71428650000001,46.277984599999996,-275.625
4991,5568,0.1299525,0.03796755,233.71428650000001,41.406618099999996,-299.5065765
4992,5569,0.110725,0.0370166,233.71428650000001,36.535251599999995,-323.388153
4993,5570,0.09216629999999999,0.033768450000000005,233.71428650000001,31.6638832,-347.269745
4994,5571,0.0770428,0.0328435,233.71428650000001,26.7925167,-371.1513215
4995,5572,0.06337915,0.031040050000000003,233.71428650000001,21.9211502,-395.032898
4996,5573,0.055154049999999996,0.0306415,233.71428650000001,17.049784199999998,-418.9144745
4997,5574,0.0519866,0.029932950000000003,233.71428650000001,12.1784177,-442.796051
4998,5575,0.05689975,0.0303147,233.71428650000001,7.30705118,-466.67762749999997
4999,5576,0.06654905,0.030596099999999998,233.71428650000001,2.43568468,-490.559204
5000,5577,0.08059635000000001,0.03193195,209.028572,90.120285,-60.690788250000004
5001,5578,0.0961744,0.03313455,209.028572,85.2489166,-84.5723686
5002,5579,0.11388649999999999,0.03568275,209.028572,80.377552,-108.45394885000002
5003,5580,0.132307,0.03767265,209.028572,75.50618739999999,-132.335529
5004,5581,0.152974,0.04214955,209.028572,70.634819,-156.2171095
5005,5582,0.1755785,0.04451265,209.028572,65.7634525,-180.098686
5006,5583,0.262049,0.012718799999999999,209.028572,60.892086,-203.9802625
5007,5584,0.24666149999999998,0.05136325,209.028572,56.0207195,-227.86183949999997
5008,5585,0.1883645,0.0504232,209.028572,51.14935299999999,-251.74341599999997
5009,5586,0.1655635,0.04658685,209.028572,46.277984599999996,-275.625
5010,5587,0.13903100000000002,0.04509225,209.028572,41.406618099999996,-299.5065765
5011,5588,0.11987900000000001,0.04169455,209.028572,36.535251599999995,-323.388153
5012,5589,0.10147049999999999,0.04030375,209.028572,31.6638832,-347.269745
5013,5590,0.08584565,0.038095649999999995,209.028572,26.7925167,-371.1513215
5014,5591,0.0733731,0.037244,209.028572,21.9211502,-395.032898
5015,5592,0.0645766,0.036088499999999996,209.028572,17.049784199999998,-418.9144745
5016,5593,0.06242425,0.0359767,209.028572,12.1784177,-442.796051
5017,5594,0.0658857,0.0357932,209.028572,7.30705118,-466.67762749999997
5018,5595,0.0756246,0.036524799999999996,209.028572,2.43568468,-490.559204
5019,5596,0.08861905,0.0372825,184.34285749999998,90.120285,-60.690788250000004
5020,5597,0.10447900000000002,0.038970450000000004,184.34285749999998,85.248918525,-84.5723686
5021,5598,0.122152,0.0406461,184.34285749999998,80.377553925,-108.45394885000002
5022,5599,0.14087,0.043453399999999996,184.34285749999998,75.50618739999999,-132.335529
5023,5600,0.16290749999999998,0.04599365,184.34285749999998,70.634819,-156.2171095
5024,5601,0.184214,0.0498764,184.34285749999998,65.7634525,-180.098686
5025,5602,0.229497,0.01280595,184.34285749999998,60.892086,-203.9802625
5026,5603,0.21707350000000003,0.02862425,184.34285749999998,56.0207195,-227.86183949999997
5027,5604,0.20179350000000001,0.047956799999999994,184.34285749999998,51.14935299999999,-251.74341599999997
5028,5605,0.166086,0.04726229999999999,184.34285749999998,46.277984599999996,-275.625
5029,5606,0.1489135,0.047506950000000006,184.34285749999998,41.406618099999996,-299.5065765
5030,5607,0.1259285,0.045783599999999994,184.34285749999998,36.535251599999995,-323.388153
5031,5608,0.1096955,0.04416795,184.34285749999998,31.663883674999997,-347.269745
5032,5609,0.09338874999999999,0.0428476,184.34285749999998,26.792517175,-371.1513215
5033,5610,0.0811643,0.0415724,184.34285749999998,21.921150675,-395.032898
5034,5611,0.07297495,0.04097555,184.34285749999998,17.049784199999998,-418.9144745
5035,5612,0.07012545,0.040440649999999995,184.34285749999998,12.178417465,-442.796051
5036,5613,0.07392494999999999,0.04059905,184.34285749999998,7.307050825000001,-466.67762749999997
5037,5614,0.08263894999999999,0.040889499999999995,184.34285749999998,2.4356840823667216,-490.559204
5038,5615,0.0956042,0.04179025,159.714287,-2.4356840876332786,-490.559204
5039,5616,0.1113735,0.04293685,159.714287,-7.307050825,-466.67762749999997
5040,5617,0.1284825,0.04448189999999999,159.714287,-12.178417465,-442.796051
5041,5618,0.1486525,0.046420050000000004,159.714287,-17.049784199999998,-418.9144745
5042,5619,0.16770849999999998,0.047871750000000005,159.714287,-21.921150675,-395.032898
5043,5620,0.193712,0.05010225,159.714287,-26.792517174999997,-371.1513215
5044,5621,0.2126185,0.0104497,159.714287,-31.663883674999997,-347.26974500000006
5045,5622,0.2026675,0.0286432,159.714287,-36.535251599999995,-323.388153
5046,5623,0.1863305,0.0367745,159.714287,-41.406618099999996,-299.5065765
5047,5624,0.17352299999999998,0.047405550000000005,159.714287,-46.277984599999996,-275.625
5048,5625,0.1483225,0.04679145,159.714287,-51.14935299999999,-251.743416
5049,5626,0.1332925,0.048034600000000004,159.714287,-56.0207195,-227.86183949999997
5050,5627,0.113738,0.046582149999999996,159.714287,-60.89208599999999,-203.98026249999998
5051,5628,0.09993775,0.046003249999999996,159.714287,-65.7634525,-180.09868600000001
5052,5629,0.08704010000000001,0.0450642,159.714287,-70.634819,-156.2171095
5053,5630,0.079317,0.04451495,159.714287,-75.50618739999999,-132.335529
5054,5631,0.07666865,0.044218450000000006,159.714287,-80.377553925,-108.45394885000002
5055,5632,0.07986425,0.044170600000000004,159.714287,-85.24891852500001,-84.5723686
5056,5633,0.0884335,0.0444388,159.714287,-90.120285,-60.69078825
5057,5634,0.101025,0.0450246,135.142857,-2.43568468,-490.559204
5058,5635,0.1160235,0.0456708,135.142857,-7.307051179999999,-466.67762749999997
5059,5636,0.1339365,0.046866899999999996,135.142857,-12.1784177,-442.796051
5060,5637,0.1515675,0.0472327,135.142857,-17.049784199999998,-418.9144745
5061,5638,0.1729115,0.0484083,135.142857,-21.9211502,-395.032898
5062,5639,0.19143100000000002,0.04572855,135.142857,-26.7925167,-371.1513215
5063,5640,0.1953915,0.0122628,135.142857,-31.6638832,-347.26974500000006
5064,5641,0.1894155,0.024350700000000003,135.142857,-36.535251599999995,-323.388153
5065,5642,0.1810125,0.037725049999999996,135.142857,-41.406618099999996,-299.5065765
5066,5643,0.16507650000000001,0.041379400000000004,135.142857,-46.277984599999996,-275.625
5067,5644,0.1526675,0.04775765,135.142857,-51.14935299999999,-251.743416
5068,5645,0.13250499999999998,0.04713895,135.142857,-56.0207195,-227.86183949999997
5069,5646,0.118673,0.0485234,135.142857,-60.89208599999999,-203.98026249999998
5070,5647,0.102697,0.047657950000000004,135.142857,-65.7634525,-180.09868600000001
5071,5648,0.09208645,0.0477135,135.142857,-70.634819,-156.2171095
5072,5649,0.0839551,0.047217,135.142857,-75.50618739999999,-132.335529
5073,5650,0.08174279999999999,0.0471558,135.142857,-80.377552,-108.45394885000002
5074,5651,0.08469245,0.047014650000000005,135.142857,-85.2489166,-84.5723686
5075,5652,0.0928573,0.047201049999999994,135.142857,-90.120285,-60.69078825
5076,5653,0.1046195,0.04723185,110.5714266,-2.43568468,-490.559204
5077,5654,0.119674,0.0477303,110.5714266,-7.307051179999999,-466.67762749999997
5078,5655,0.135682,0.0474577,110.5714266,-12.1784177,-442.796051
5079,5656,0.1542315,0.04793475,110.5714266,-17.049784199999998,-418.9144745
5080,5657,0.1714995,0.046005199999999996,110.5714266,-21.9211502,-395.032898
5081,5658,0.189081,0.04418605,110.5714266,-26.7925167,-371.1513215
5082,5659,0.18213000000000001,0.0131105,110.5714266,-31.6638832,-347.26974500000006
5083,5660,0.178644,0.02667425,110.5714266,-36.535251599999995,-323.388153
5084,5661,0.17188499999999998,0.033419950000000004,110.5714266,-41.406618099999996,-299.5065765
5085,5662,0.16283150000000002,0.0424508,110.5714266,-46.277984599999996,-275.625
5086,5663,0.14732199999999998,0.0438446,110.5714266,-51.14935299999999,-251.743416
5087,5664,0.13436399999999998,0.04808695,110.5714266,-56.0207195,-227.86183949999997
5088,5665,0.11781950000000001,0.048046450000000004,110.5714266,-60.89208599999999,-203.98026249999998
5089,5666,0.10606299999999999,0.04947965,110.5714266,-65.7634525,-180.09868600000001
5090,5667,0.09443045,0.04923525,110.5714266,-70.634819,-156.2171095
5091,5668,0.08828125,0.0496621,110.5714266,-75.50618739999999,-132.335529
5092,5669,0.08569815,0.049435400000000004,110.5714266,-80.377552,-108.45394885000002
5093,5670,0.08886265,0.04955955,110.5714266,-85.2489166,-84.5723686
5094,5671,0.09614165,0.04925935,110.5714266,-90.120285,-60.69078825
5095,5672,0.107485,0.04927975,86.0,-2.43568468,-490.559204
5096,5673,0.12093099999999998,0.048594750000000006,86.0,-7.307051179999999,-466.67762749999997
5097,5674,0.136749,0.048387349999999996,86.0,-12.1784177,-442.796051
5098,5675,0.15282849999999998,0.046593499999999996,86.0,-17.049784199999998,-418.9144745
5099,5676,0.1695495,0.045369900000000005,86.0,-21.9211502,-395.032898
5100,5677,0.18487349999999997,0.0416034,86.0,-26.7925167,-371.1513215
5101,5678,0.16921550000000002,0.01569065,86.0,-31.6638832,-347.26974500000006
5102,5679,0.16909400000000002,0.025191199999999997,86.0,-36.535251599999995,-323.388153
5103,5680,0.1654045,0.03526934999999999,86.0,-41.406618099999996,-299.5065765
5104,5681,0.1560475,0.037974350000000004,86.0,-46.277984599999996,-275.625
5105,5682,0.1440865,0.04425335,86.0,-51.14935299999999,-251.743416
5106,5683,0.1301605,0.0458924,86.0,-56.0207195,-227.86183949999997
5107,5684,0.11845750000000001,0.04921415,86.0,-60.89208599999999,-203.98026249999998
5108,5685,0.105851,0.0498744,86.0,-65.7634525,-180.09868600000001
5109,5686,0.09770845,0.0513498,86.0,-70.634819,-156.2171095
5110,5687,0.091227,0.0514856,86.0,-75.50618739999999,-132.335529
5111,5688,0.0901323,0.05200235,86.0,-80.377552,-108.45394885000002
5112,5689,0.09249155,0.051712049999999996,86.0,-85.2489166,-84.5723686
5113,5690,0.09950405,0.05162725,86.0,-90.120285,-60.69078825
5114,5691,0.1092465,0.05076365,61.428571700000006,-2.43568468,-490.559204
5115,5692,0.121762,0.05008055,61.428571700000006,-7.307051179999999,-466.67762749999997
5116,5693,0.1355785,0.04824385,61.428571700000006,-12.1784177,-442.796051
5117,5694,0.150285,0.04663255,61.428571700000006,-17.049784199999998,-418.9144745
5118,5695,0.165487,0.043256949999999995,61.428571700000006,-21.9211502,-395.032898
5119,5696,0.17954749999999997,0.04050495,61.428571700000006,-26.7925167,-371.1513215
5120,5697,0.155632,0.0159398,61.428571700000006,-31.6638832,-347.26974500000006
5121,5698,0.161458,0.027934599999999997,61.428571700000006,-36.535251599999995,-323.388153
5122,5699,0.158302,0.03024525,61.428571700000006,-41.406618099999996,-299.5065765
5123,5700,0.14697100000000002,0.037712949999999995,61.428571700000006,-46.277984599999996,-275.625
5124,5701,0.1375645,0.04156825,61.428571700000006,-51.14935299999999,-251.743416
5125,5702,0.1267455,0.046650449999999996,61.428571700000006,-56.0207195,-227.86183949999997
5126,5703,0.1157785,0.048958650000000006,61.428571700000006,-60.89208599999999,-203.98026249999998
5127,5704,0.107403,0.05189825,61.428571700000006,-65.7634525,-180.09868600000001
5128,5705,0.0994666,0.0529448,61.428571700000006,-70.634819,-156.2171095
5129,5706,0.0958978,0.0543266,61.428571700000006,-75.50618739999999,-132.335529
5130,5707,0.09437495,0.05445045,61.428571700000006,-80.377552,-108.45394885000002
5131,5708,0.0973861,0.054707950000000005,61.428571700000006,-85.2489166,-84.5723686
5132,5709,0.1028645,0.0539617,61.428571700000006,-90.120285,-60.69078825
5133,5710,0.11157,0.05320355,36.857142450000005,-2.43568468,-490.559204
5134,5711,0.12197250000000001,0.0513995,36.857142450000005,-7.307051179999999,-466.67762749999997
5135,5712,0.1337645,0.0494315,36.857142450000005,-12.1784177,-442.796051
5136,5713,0.14675100000000002,0.0462173,36.857142450000005,-17.049784199999998,-418.9144745
5137,5714,0.159005,0.042752149999999996,36.857142450000005,-21.9211502,-395.032898
5138,5715,0.1728155,0.037753999999999996,36.857142450000005,-26.7925167,-371.1513215
5139,5716,0.1474715,0.0192773,36.857142450000005,-31.6638832,-347.26974500000006
5140,5717,0.154143,0.019459449999999996,36.857142450000005,-36.535251599999995,-323.388153
5141,5718,0.141768,0.028122849999999998,36.857142450000005,-41.406618099999996,-299.5065765
5142,5719,0.138013,0.035355,36.857142450000005,-46.277984599999996,-275.625
5143,5720,0.12932950000000001,0.0420279,36.857142450000005,-51.14935299999999,-251.743416
5144,5721,0.122003,0.0466911,36.857142450000005,-56.0207195,-227.86183949999997
5145,5722,0.115033,0.051254499999999995,36.857142450000005,-60.89208599999999,-203.98026249999998
5146,5723,0.10807649999999999,0.05376905,36.857142450000005,-65.7634525,-180.09868600000001
5147,5724,0.1040655,0.05638950000000001,36.857142450000005,-70.634819,-156.2171095
5148,5725,0.10072149999999999,0.0573495,36.857142450000005,-75.50618739999999,-132.335529
5149,5726,0.10115650000000001,0.0583733,36.857142450000005,-80.377552,-108.45394885000002
5150,5727,0.103023,0.058076249999999996,36.857142450000005,-85.2489166,-84.5723686
5151,5728,0.10814499999999999,0.05769225,36.857142450000005,-90.120285,-60.69078825
5152,5729,0.114656,0.05614215,12.28571415,-2.435684085,-490.559204
5153,5730,0.1230445,0.05425605,12.28571415,-7.307050825,-466.67762749999997
5154,5731,0.13251200000000002,0.051249050000000004,12.28571415,-12.178417465,-442.796051
5155,5732,0.14204050000000001,0.04749155,12.28571415,-17.049784199999998,-418.9144745
5156,5733,0.1529655,0.042740749999999994,12.28571415,-21.921150675,-395.032898
5157,5734,0.1614595,0.036687750000000005,12.28571415,-26.792517175,-371.1513215
5158,5735,0.14023049999999998,0.0028383849999999997,12.28571415,-31.663883675,-347.26974500000006
5159,5736,0.12641950000000002,0.0131268,12.28571415,-36.535251599999995,-323.388153
5160,5737,0.128907,0.02712735,12.28571415,-41.406618099999996,-299.5065765
5161,5738,0.125228,0.0356677,12.28571415,-46.277984599999996,-275.625
5162,5739,0.12288299999999999,0.04347135,12.28571415,-51.14935299999999,-251.743416
5163,5740,0.11934,0.04978389999999999,12.28571415,-56.0207195,-227.86183949999997
5164,5741,0.11523499999999999,0.0541953,12.28571415,-60.89208599999999,-203.98026249999998
5165,5742,0.1126725,0.0582785,12.28571415,-65.7634525,-180.09868600000001
5166,5743,0.1095785,0.06040894999999999,12.28571415,-70.634819,-156.2171095
5167,5744,0.1092645,0.06250765,12.28571415,-75.50618739999999,-132.335529
5168,5745,0.10909150000000001,0.0629499,12.28571415,-80.377553925,-108.45394885000002
5169,5746,0.1117745,0.0633139,12.28571415,-85.248918525,-84.5723686
5170,5747,0.1149955,0.0622805,12.28571415,-90.120285,-60.69078825
5171,5748,0.1202925,0.0609361,1198.5,90.120285,-60.690788250000004
5172,5749,0.1260905,0.05835135,1198.5,85.248918525,-84.5723686
5173,5750,0.13264,0.05500365,1198.5,80.377553925,-108.45394885000002
5174,5751,0.1396695,0.0506225,1198.5,75.50618739999999,-132.335529
5175,5752,0.1456785,0.0445966,1198.5,70.634819,-156.2171095
5176,5753,0.1528165,0.03813625,1198.5,65.7634525,-180.098686
5177,5754,0.2448555,0.042155,1198.5,60.892086,-203.9802625
5178,5755,0.16880849999999997,0.0517516,1198.5,56.0207195,-227.86183949999997
5179,5756,0.13776,0.04112735,1198.5,51.14935299999999,-251.74341599999997
5180,5757,0.11901800000000001,0.042652,1198.5,46.277984599999996,-275.625
5181,5758,0.102485,0.03888485,1198.5,41.406618099999996,-299.5065765
5182,5759,0.09153444999999999,0.03914445,1198.5,36.535251599999995,-323.388153
5183,5760,0.08045179999999999,0.0371729,1198.5,31.663883674999997,-347.269745
5184,5761,0.07313175,0.037082649999999995,1198.5,26.792517174999997,-371.1513215
5185,5762,0.0662049,0.035934850000000004,1198.5,21.921150674999996,-395.032898
5186,5763,0.0630817,0.03595255,1198.5,17.049784199999998,-418.9144745
5187,5764,0.06143475,0.0354358,1198.5,12.178417465,-442.796051
5188,5765,0.06374664999999999,0.03581455,1198.5,7.307050824999999,-466.67762749999997
5189,5766,0.06771965,0.0358768,1198.5,2.4356840823667216,-490.559204
5190,5767,0.07480225,0.036766,1173.5,90.120285,-60.690788250000004
5191,5768,0.0828285,0.03733735,1173.5,85.2489166,-84.5723686
5192,5769,0.0931672,0.0389029,1173.5,80.377552,-108.45394885000002
5193,5770,0.10398349999999999,0.039830950000000004,1173.5,75.50618739999999,-132.335529
5194,5771,0.1174605,0.042557399999999995,1173.5,70.634819,-156.2171095
5195,5772,0.132043,0.0434499,1173.5,65.7634525,-180.098686
5196,5773,0.1951365,0.01381185,1173.5,60.892086,-203.9802625
5197,5774,0.18479,0.0460459,1173.5,56.0207195,-227.86183949999997
5198,5775,0.1422445,0.04670645,1173.5,51.14935299999999,-251.74341599999997
5199,5776,0.12646000000000002,0.04471485,1173.5,46.277984599999996,-275.625
5200,5777,0.109853,0.044581499999999996,1173.5,41.406618099999996,-299.5065765
5201,5778,0.09797145,0.0425273,1173.5,36.535251599999995,-323.388153
5202,5779,0.08802580000000002,0.042128849999999995,1173.5,31.6638832,-347.269745
5203,5780,0.07947394999999999,0.040707900000000005,1173.5,26.7925167,-371.1513215
5204,5781,0.07377205,0.040434899999999996,1173.5,21.9211502,-395.032898
5205,5782,0.06948460000000001,0.039632,1173.5,17.049784199999998,-418.9144745
5206,5783,0.0688289,0.0397095,1173.5,12.1784177,-442.796051
5207,5784,0.0700293,0.03950705,1173.5,7.30705118,-466.67762749999997
5208,5785,0.0746796,0.04005275,1173.5,2.43568468,-490.559204
5209,5786,0.08087005,0.040425749999999996,1148.5,90.120285,-60.690788250000004
5210,5787,0.08947235,0.04151805,1148.5,85.2489166,-84.5723686
5211,5788,0.09929765,0.04241325,1148.5,80.377552,-108.45394885000002
5212,5789,0.1106155,0.044126450000000005,1148.5,75.50618739999999,-132.335529
5213,5790,0.12425899999999998,0.045451500000000006,1148.5,70.634819,-156.2171095
5214,5791,0.1382625,0.0476783,1148.5,65.7634525,-180.098686
5215,5792,0.16643799999999997,0.01332825,1148.5,60.892086,-203.9802625
5216,5793,0.158341,0.0285093,1148.5,56.0207195,-227.86183949999997
5217,5794,0.15022249999999998,0.04500485,1148.5,51.14935299999999,-251.74341599999997
5218,5795,0.12638549999999998,0.045670749999999996,1148.5,46.277984599999996,-275.625
5219,5796,0.116384,0.0465172,1148.5,41.406618099999996,-299.5065765
5220,5797,0.1029335,0.04592805,1148.5,36.535251599999995,-323.388153
5221,5798,0.09389275,0.0449664,1148.5,31.6638832,-347.269745
5222,5799,0.08548605000000001,0.04435605,1148.5,26.7925167,-371.1513215
5223,5800,0.07927595000000001,0.0434678,1148.5,21.9211502,-395.032898
5224,5801,0.07564409999999999,0.043200699999999995,1148.5,17.049784199999998,-418.9144745
5225,5802,0.07412435,0.04277565,1148.5,12.1784177,-442.796051
5226,5803,0.07594219999999999,0.042950550000000004,1148.5,7.30705118,-466.67762749999997
5227,5804,0.07979615,0.04306825,1148.5,2.43568468,-490.559204
5228,5805,0.0863464,0.04369245000000001,1123.5,90.120285,-60.690788250000004
5229,5806,0.09459320000000002,0.044347250000000005,1123.5,85.2489166,-84.5723686
5230,5807,0.104216,0.045306849999999996,1123.5,80.377552,-108.45394885000002
5231,5808,0.116035,0.04638629999999999,1123.5,75.50618739999999,-132.335529
5232,5809,0.127469,0.04701845,1123.5,70.634819,-156.2171095
5233,5810,0.1441335,0.0480442,1123.5,65.7634525,-180.098686
5234,5811,0.14999049999999997,0.01132325,1123.5,60.892086,-203.9802625
5235,5812,0.144931,0.02806785,1123.5,56.0207195,-227.86183949999997
5236,5813,0.1359285,0.0365236,1123.5,51.14935299999999,-251.74341599999997
5237,5814,0.130713,0.045833700000000005,1123.5,46.277984599999996,-275.625
5238,5815,0.115654,0.046368450000000005,1123.5,41.406618099999996,-299.5065765
5239,5816,0.108027,0.0476776,1123.5,36.535251599999995,-323.388153
5240,5817,0.09723815,0.0470208,1123.5,31.6638832,-347.269745
5241,5818,0.09019935,0.04664845,1123.5,26.7925167,-371.1513215
5242,5819,0.08380145,0.046111799999999994,1123.5,21.9211502,-395.032898
5243,5820,0.08006755000000002,0.0456767,1123.5,17.049784199999998,-418.9144745
5244,5821,0.07887225,0.0455158,1123.5,12.1784177,-442.796051
5245,5822,0.08014805,0.045427499999999996,1123.5,7.30705118,-466.67762749999997
5246,5823,0.0842028,0.04563685,1123.5,2.43568468,-490.559204
5247,5824,0.09037475,0.0459811,1098.5,90.120285,-60.690788250000004
5248,5825,0.09824705,0.046405749999999996,1098.5,85.2489166,-84.5723686
5249,5826,0.10814100000000001,0.0470964,1098.5,80.377552,-108.45394885000002
5250,5827,0.118012,0.04713265,1098.5,75.50618739999999,-132.335529
5251,5828,0.130663,0.04754975,1098.5,70.634819,-156.2171095
5252,5829,0.1410245,0.04485795000000001,1098.5,65.7634525,-180.098686
5253,5830,0.13348500000000002,0.012404100000000001,1098.5,60.892086,-203.9802625
5254,5831,0.132256,0.024737949999999998,1098.5,56.0207195,-227.86183949999997
5255,5832,0.1305285,0.0370076,1098.5,51.14935299999999,-251.74341599999997
5256,5833,0.122976,0.04155795,1098.5,46.277984599999996,-275.625
5257,5834,0.1184705,0.047105549999999996,1098.5,41.406618099999996,-299.5065765
5258,5835,0.10736599999999999,0.047297,1098.5,36.535251599999995,-323.388153
5259,5836,0.1008365,0.04844395,1098.5,31.6638832,-347.269745
5260,5837,0.0924201,0.04796155,1098.5,26.7925167,-371.1513215
5261,5838,0.0873881,0.0479671,1098.5,21.9211502,-395.032898
5262,5839,0.0834307,0.04762455,1098.5,17.049784199999998,-418.9144745
5263,5840,0.08236265,0.0475357,1098.5,12.1784177,-442.796051
5264,5841,0.0836277,0.04743875,1098.5,7.30705118,-466.67762749999997
5265,5842,0.0874088,0.04754415000000001,1098.5,2.43568468,-490.559204
5266,5843,0.0931569,0.047573149999999995,1073.5,90.120285,-60.690788250000004
5267,5844,0.100985,0.047874349999999996,1073.5,85.2489166,-84.5723686
5268,5845,0.1094435,0.047612600000000005,1073.5,80.377552,-108.45394885000002
5269,5846,0.11976450000000001,0.047711199999999995,1073.5,75.50618739999999,-132.335529
5270,5847,0.12893949999999998,0.04589935,1073.5,70.634819,-156.2171095
5271,5848,0.13831949999999998,0.043755600000000006,1073.5,65.7634525,-180.098686
5272,5849,0.12033550000000001,0.01296925,1073.5,60.892086,-203.9802625
5273,5850,0.1218545,0.026286999999999998,1073.5,56.0207195,-227.86183949999997
5274,5851,0.12202550000000001,0.03413745,1073.5,51.14935299999999,-251.74341599999997
5275,5852,0.12096399999999999,0.04227225,1073.5,46.277984599999996,-275.625
5276,5853,0.1138685,0.044496799999999996,1073.5,41.406618099999996,-299.5065765
5277,5854,0.1088945,0.047929,1073.5,36.535251599999995,-323.388153
5278,5855,0.10016634999999999,0.0481259,1073.5,31.6638832,-347.269745
5279,5856,0.09492020000000001,0.04917605,1073.5,26.7925167,-371.1513215
5280,5857,0.08904029999999999,0.04898165,1073.5,21.9211502,-395.032898
5281,5858,0.08635615,0.0492546,1073.5,17.049784199999998,-418.9144745
5282,5859,0.08500070000000001,0.04905545,1073.5,12.1784177,-442.796051
5283,5860,0.0864646,0.049135399999999996,1073.5,7.30705118,-466.67762749999997
5284,5861,0.08974404999999999,0.04891635,1073.5,2.43568468,-490.559204
5285,5862,0.09530685,0.04893845,1048.5,90.120285,-60.690788250000004
5286,5863,0.10197800000000001,0.04845065,1048.5,85.248918525,-84.5723686
5287,5864,0.110324,0.048232399999999995,1048.5,80.377553925,-108.45394885000002
5288,5865,0.11856,0.04681705,1048.5,75.50618739999999,-132.335529
5289,5866,0.12720900000000002,0.045475749999999995,1048.5,70.634819,-156.2171095
5290,5867,0.1344745,0.04203385,1048.5,65.7634525,-180.098686
5291,5868,0.1069985,0.01481715,1048.5,60.892086,-203.9802625
5292,5869,0.1126235,0.02576655,1048.5,56.0207195,-227.86183949999997
5293,5870,0.1164885,0.03552015,1048.5,51.14935299999999,-251.74341599999997
5294,5871,0.115091,0.03954625,1048.5,46.277984599999996,-275.625
5295,5872,0.1120275,0.044676350000000004,1048.5,41.406618099999996,-299.5065765
5296,5873,0.105449,0.0462495,1048.5,36.535251599999995,-323.388153
5297,5874,0.10092399999999999,0.04877545,1048.5,31.663883674999997,-347.269745
5298,5875,0.0945891,0.0492292,1048.5,26.792517175,-371.1513215
5299,5876,0.0913046,0.05030225000000001,1048.5,21.921150675,-395.032898
5300,5877,0.088119,0.0503238,1048.5,17.049784199999998,-418.9144745
5301,5878,0.08785215,0.05070505,1048.5,12.178417465,-442.796051
5302,5879,0.0887385,0.0504551,1048.5,7.307050825000001,-466.67762749999997
5303,5880,0.09207114999999999,0.05042915,1048.5,2.435684085,-490.559204
5304,5881,0.09653945,0.049807149999999994,1198.5,100.0139923,-12.1875
5305,5882,0.10277150000000002,0.04934555,1198.5,95.04197690000001,-36.5625
5306,5883,0.10949600000000001,0.04801435,1173.5,100.0139923,-12.1875
5307,5884,0.1169115,0.04673255,1173.5,95.04197690000001,-36.5625
5308,5885,0.12408849999999999,0.04411555,1148.5,100.0139923,-12.1875
5309,5886,0.130188,0.04137555,1148.5,95.04197690000001,-36.5625
5310,5887,0.09346995,0.0154175,1123.5,100.0139923,-12.1875
5311,5888,0.10505799999999998,0.028049499999999998,1123.5,95.04197690000001,-36.5625
5312,5889,0.11011599999999999,0.033197149999999995,1098.5,100.0139923,-12.1875
5313,5890,0.10946999999999998,0.03930455,1098.5,95.04197690000001,-36.5625
5314,5891,0.106664,0.042558,1073.5,100.0139923,-12.1875
5315,5892,0.10359949999999998,0.04650595,1073.5,95.04197690000001,-36.5625
5316,5893,0.09864044999999999,0.04816015,1048.5,100.0139923,-12.1875
5317,5894,0.0958308,0.0503898,1048.5,95.04197690000001,-36.5625
5318,5895,0.0921334,0.051049399999999995,159.714287,-95.0419769,-36.5625
5319,5896,0.0911189,0.052101400000000006,159.714287,-100.01399229999998,-12.1875
5320,5897,0.09029825,0.052115499999999995,135.142857,-95.0419769,-36.5625
5321,5898,0.09190545,0.05235645,135.142857,-100.01399229999998,-12.1875
5322,5899,0.09417205000000001,0.051782999999999996,110.5714266,-95.0419769,-36.5625
5323,5900,0.0982883,0.0513014,110.5714266,-100.01399229999998,-12.1875
5324,5901,0.102939,0.049989099999999995,86.0,-95.0419769,-36.5625
5325,5902,0.10855400000000001,0.04860655,86.0,-100.01399229999998,-12.1875
5326,5903,0.1144095,0.046251099999999996,61.428571700000006,-95.0419769,-36.5625
5327,5904,0.119801,0.0436054,61.428571700000006,-100.01399229999998,-12.1875
5328,5905,0.1251735,0.03981205,36.857142450000005,-95.0419769,-36.5625
5329,5906,0.0824532,0.01818425,36.857142450000005,-100.01399229999998,-12.1875
5330,5907,0.0970828,0.024776700000000002,12.28571415,-95.0419769,-36.5625
5331,5908,0.09988944999999999,0.031839599999999996,12.28571415,-100.01399229999998,-12.1875
5332,5909,0.102058,0.037226999999999996,1048.5,13.2644758,100.75370025000001
5333,5910,0.101645,0.0425386,1073.5,13.2644758,100.75370025000001
5334,5911,0.09970235,0.045858350000000006,1098.5,13.2644758,100.75370025000001
5335,5912,0.09851789999999999,0.04942935,1123.5,13.2644758,100.75370025000001
5336,5913,0.09586375,0.051156850000000004,1148.5,13.2644758,100.75370025000001
5337,5914,0.09525125,0.05319855,1173.5,13.2644758,100.75370025000001
5338,5915,0.0938678,0.053806,1198.5,13.2644758,100.75370025000001
5339,5916,0.0946641,0.054640499999999995,1048.5,38.8894758,93.88750075
5340,5917,0.09531955,0.05436239999999999,1073.5,38.8894758,93.88750075
5341,5918,0.09778034999999999,0.05416435,1098.5,38.8894758,93.88750075
5342,5919,0.1003395,0.0529989,1123.5,38.8894758,93.88750075
5343,5920,0.10402449999999999,0.05170845,1148.5,38.8894758,93.88750075
5344,5921,0.10779000000000001,0.049481849999999994,1173.5,38.8894758,93.88750075
5345,5922,0.11160700000000001,0.04681855,1198.5,38.8894758,93.88750075
5346,5923,0.1155275,0.0432829,1048.5,61.86422350000001,80.623024
5347,5924,0.11778149999999998,0.03888585,1073.5,61.86422350000001,80.623024
5348,5925,0.06796995,0.010701724999999999,1098.5,61.86422350000001,80.623024
5349,5926,0.079621,0.0208518,1123.5,61.86422350000001,80.623024
5350,5927,0.08912855,0.02992735,1148.5,61.86422350000001,80.623024
5351,5928,0.09389700000000001,0.0370645,1173.5,61.86422350000001,80.623024
5352,5929,0.09649474999999999,0.042554,1198.5,61.86422350000001,80.623024
5353,5930,0.09848625,0.047656,1048.5,80.623024,61.8642235
5354,5931,0.09829395,0.05079085,1073.5,80.623024,61.8642235
5355,5932,0.0992678,0.0540393,1098.5,80.623024,61.8642235
5356,5933,0.09853830000000001,0.0555141,1123.5,80.623024,61.8642235
5357,5934,0.09955075,0.05719659999999999,1148.5,80.623024,61.8642235
5358,5935,0.09953100000000001,0.057447099999999994,1173.5,80.623024,61.8642235
5359,5936,0.101164,0.057814,1198.5,80.623024,61.8642235
5360,5937,0.10222049999999999,0.05699975,1048.5,93.88750075,38.8894758
5361,5938,0.104457,0.05610205,1073.5,93.88750075,38.8894758
5362,5939,0.106269,0.0541486,1098.5,93.88750075,38.8894758
5363,5940,0.108453,0.051783499999999996,1123.5,93.88750075,38.8894758
5364,5941,0.1102165,0.0484642,1148.5,93.88750075,38.8894758
5365,5942,0.111104,0.0441888,1173.5,93.88750075,38.8894758
5366,5943,0.11159000000000001,0.039199,1198.5,93.88750075,38.8894758
5367,5944,0.17121150000000002,0.03433895,1048.5,100.75370025000001,13.2644758
5368,5945,0.11850649999999999,0.043777949999999996,1073.5,100.75370025000001,13.2644758
5369,5946,0.09715779999999999,0.0379814,1098.5,100.75370025000001,13.2644758
5370,5947,0.08876325,0.040832549999999995,1123.5,100.75370025000001,13.2644758
5371,5948,0.08073255,0.03953525,1148.5,100.75370025000001,13.2644758
5372,5949,0.0782877,0.041042350000000005,1173.5,100.75370025000001,13.2644758
5373,5950,0.07470420000000001,0.040618100000000004,1198.5,100.75370025000001,13.2644758
5374,5951,0.07392689999999999,0.041422650000000005,,,
5375,5952,0.07222825,0.0411765,,,
5376,5953,0.0723053,0.041639,,,
5377,5954,0.0718184,0.041456,,,
5378,5955,0.0727624,0.0418112,,,
5379,5956,0.07333429999999999,0.041666850000000005,,,
5380,5957,0.07528870000000001,0.042046200000000006,,,
5381,5958,0.07687205,0.04187305,,,
5382,5959,0.08011080000000001,0.04237765,,,
5383,5960,0.0829141,0.042038900000000004,,,
5384,5961,0.08841615,0.042961799999999994,,,
5385,5962,0.0937651,0.0421764,,,
5386,5963,0.1306735,0.01478015,,,
5387,5964,0.1262815,0.040402850000000004,,,
5388,5965,0.1004768,0.0425234,,,
5389,5966,0.0925267,0.04247135,,,
5390,5967,0.08634810000000001,0.04371125,,,
5391,5968,0.0820552,0.04326795,,,
5392,5969,0.07994414999999999,0.0439238,,,
5393,5970,0.0775903,0.0435673,,,
5394,5971,0.0768779,0.04391535,,,
5395,5972,0.07578760000000001,0.043653,,,
5396,5973,0.07608555,0.04391975,,,
5397,5974,0.0761486,0.04377005,,,
5398,5975,0.07749355,0.0440871,,,
5399,5976,0.07869815,0.044030150000000004,,,
5400,5977,0.08116480000000001,0.044453999999999994,,,
5401,5978,0.08360915,0.04441315,,,
5402,5979,0.08745365,0.044964649999999995,,,
5403,5980,0.09201029999999999,0.0448471,,,
5404,5981,0.09800305000000001,0.0454021,,,
5405,5982,0.10640050000000001,0.013728,,,
5406,5983,0.103293,0.027849699999999998,,,
5407,5984,0.103305,0.0414934,,,
5408,5985,0.0921952,0.04349055,,,
5409,5986,0.08980025,0.04523055,,,
5410,5987,0.0858138,0.0458584,,,
5411,5988,0.08355660000000001,0.045905299999999996,,,
5412,5989,0.0817523,0.04607185,,,
5413,5990,0.08022494999999999,0.0458224,,,
5414,5991,0.07966795,0.045904,,,
5415,5992,0.07918510000000001,0.04571185,,,
5416,5993,0.07980034999999999,0.04587845,,,
5417,5994,0.0805246,0.04583535,,,
5418,5995,0.0822747,0.046119,,,
5419,5996,0.084244,0.046183600000000005,,,
5420,5997,0.08700025,0.046469800000000006,,,
5421,5998,0.09043825,0.046474,,,
5422,5999,0.09400375,0.04623445,,,
5423,6000,0.1002825,0.04577595,,,
5424,6001,0.09083350000000001,0.011899050000000001,,,
5425,6002,0.09141575,0.026854750000000004,,,
5426,6003,0.09049435,0.035416699999999995,,,
5427,6004,0.09358930000000001,0.04365805,,,
5428,6005,0.0891222,0.0454363,,,
5429,6006,0.0888238,0.04728355,,,
5430,6007,0.08610614999999999,0.0475285,159.714287,90.120285,-60.690788250000004
5431,6008,0.08479634999999999,0.0477143,159.714287,85.248918525,-84.5723686
5432,6009,0.08330265,0.04762140000000001,159.714287,80.377553925,-108.45394885000002
5433,6010,0.08242175,0.0474759,159.714287,75.50618739999999,-132.335529
5434,6011,0.08218244999999999,0.0474425,159.714287,70.634819,-156.2171095
5435,6012,0.08237275,0.047370300000000004,159.714287,65.7634525,-180.098686
5436,6013,0.0833697,0.047476000000000004,159.714287,60.892086,-203.9802625
5437,6014,0.08480354999999999,0.0475424,159.714287,56.0207195,-227.86183949999997
5438,6015,0.08678140000000001,0.0476572,159.714287,51.14935299999999,-251.74341599999997
5439,6016,0.0893621,0.04768675,159.714287,46.277984599999996,-275.625
5440,6017,0.09173790000000001,0.0472874,159.714287,41.406618099999996,-299.5065765
5441,6018,0.0952355,0.0466432,159.714287,36.535251599999995,-323.388153
5442,6019,0.09696695,0.04392905,159.714287,31.663883674999997,-347.269745
5443,6020,0.0758411,0.012169800000000001,159.714287,26.792517174999997,-371.1513215
5444,6021,0.07970825000000001,0.024178099999999998,159.714287,21.921150674999996,-395.032898
5445,6022,0.08548765,0.03534635,159.714287,17.049784199999998,-418.9144745
5446,6023,0.08690835,0.0408309,159.714287,12.178417465,-442.796051
5447,6024,0.0905931,0.04614375,159.714287,7.307050824999999,-466.67762749999997
5448,6025,0.088441,0.0472969,159.714287,2.4356840823667216,-490.559204
5449,6026,0.08851824999999999,0.0487061,135.142857,90.120285,-60.690788250000004
5450,6027,0.08641325,0.04867325,135.142857,85.2489166,-84.5723686
5451,6028,0.08558045,0.04885945,135.142857,80.377552,-108.45394885000002
5452,6029,0.0844966,0.0486736,135.142857,75.50618739999999,-132.335529
5453,6030,0.08424804999999999,0.04863735,135.142857,70.634819,-156.2171095
5454,6031,0.08443755,0.04856,135.142857,65.7634525,-180.098686
5455,6032,0.085312,0.0485923,135.142857,60.892086,-203.9802625
5456,6033,0.08660020000000002,0.0485638,135.142857,56.0207195,-227.86183949999997
5457,6034,0.08855115,0.04860035,135.142857,51.14935299999999,-251.74341599999997
5458,6035,0.09031410000000001,0.048230300000000004,135.142857,46.277984599999996,-275.625
5459,6036,0.0926754,0.04773005,135.142857,41.406618099999996,-299.5065765
5460,6037,0.09371245,0.04591585000000001,135.142857,36.535251599999995,-323.388153
5461,6038,0.09413454999999998,0.043041350000000006,135.142857,31.6638832,-347.269745
5462,6039,0.06378980000000001,0.012233500000000001,135.142857,26.7925167,-371.1513215
5463,6040,0.07060315,0.0247165,135.142857,21.9211502,-395.032898
5464,6041,0.0781237,0.033527100000000004,135.142857,17.049784199999998,-418.9144745
5465,6042,0.08561725,0.04141865,135.142857,12.1784177,-442.796051
5466,6043,0.08718215000000001,0.04466715,135.142857,7.30705118,-466.67762749999997
5467,6044,0.0898235,0.04801145,135.142857,2.43568468,-490.559204
5468,6045,0.08814620000000001,0.0485339,110.5714266,90.120285,-60.690788250000004
5469,6046,0.0880438,0.049482450000000004,110.5714266,85.2489166,-84.5723686
5470,6047,0.08642515,0.04933905,110.5714266,80.377552,-108.45394885000002
5471,6048,0.08603174999999999,0.049529949999999996,110.5714266,75.50618739999999,-132.335529
5472,6049,0.08546709999999999,0.049339900000000006,110.5714266,70.634819,-156.2171095
5473,6050,0.0858522,0.049388,110.5714266,65.7634525,-180.098686
5474,6051,0.0864377,0.0492328,110.5714266,60.892086,-203.9802625
5475,6052,0.08782480000000001,0.04925275,110.5714266,56.0207195,-227.86183949999997
5476,6053,0.0891236,0.04890825,110.5714266,51.14935299999999,-251.74341599999997
5477,6054,0.09101324999999999,0.0486057,110.5714266,46.277984599999996,-275.625
5478,6055,0.09195044999999999,0.047401,110.5714266,41.406618099999996,-299.5065765
5479,6056,0.09252385,0.0456459,110.5714266,36.535251599999995,-323.388153
5480,6057,0.09147844999999999,0.04242545,110.5714266,31.6638832,-347.269745
5481,6058,0.0514656,0.013060099999999998,110.5714266,26.7925167,-371.1513215
5482,6059,0.06292505,0.024756649999999998,110.5714266,21.9211502,-395.032898
5483,6060,0.07469039999999999,0.03461995,110.5714266,17.049784199999998,-418.9144745
5484,6061,0.0815366,0.0401984,110.5714266,12.1784177,-442.796051
5485,6062,0.0872649,0.04528285,110.5714266,7.30705118,-466.67762749999997
5486,6063,0.08764154999999998,0.04688905,110.5714266,2.43568468,-490.559204
5487,6064,0.08890305000000001,0.04892165,86.0,90.120285,-60.690788250000004
5488,6065,0.08746889999999999,0.049149349999999994,86.0,85.2489166,-84.5723686
5489,6066,0.0873734,0.04983195,86.0,80.377552,-108.45394885000002
5490,6067,0.08634065,0.0497047,86.0,75.50618739999999,-132.335529
5491,6068,0.08646015,0.049913,86.0,70.634819,-156.2171095
5492,6069,0.0864008,0.0497025,86.0,65.7634525,-180.098686
5493,6070,0.08727940000000001,0.0497353,86.0,60.892086,-203.9802625
5494,6071,0.08804984999999999,0.04937725,86.0,56.0207195,-227.86183949999997
5495,6072,0.08952494999999999,0.0491678,86.0,51.14935299999999,-251.74341599999997
5496,6073,0.09042575,0.0483084,86.0,46.277984599999996,-275.625
5497,6074,0.09139585,0.0473141,86.0,41.406618099999996,-299.5065765
5498,6075,0.09090065,0.04519615,86.0,36.535251599999995,-323.388153
5499,6076,0.0889288,0.0420634,86.0,31.6638832,-347.269745
5500,6077,0.0409448,0.01395805,86.0,26.7925167,-371.1513215
5501,6078,0.0577508,0.02642025,86.0,21.9211502,-395.032898
5502,6079,0.07099165,0.034602049999999995,86.0,17.049784199999998,-418.9144745
5503,6080,0.08082724999999999,0.0412073,86.0,12.1784177,-442.796051
5504,6081,0.08434525,0.0439529,86.0,7.30705118,-466.67762749999997
5505,6082,0.08728135000000001,0.046979599999999996,86.0,2.43568468,-490.559204
5506,6083,0.0870353,0.04791575,61.428571700000006,90.120285,-60.690788250000004
5507,6084,0.08769249999999999,0.04929775,61.428571700000006,85.2489166,-84.5723686
5508,6085,0.0867677,0.04949985,61.428571700000006,80.377552,-108.45394885000002
5509,6086,0.08699310000000002,0.05007275,61.428571700000006,75.50618739999999,-132.335529
5510,6087,0.0865523,0.049964350000000005,61.428571700000006,70.634819,-156.2171095
5511,6088,0.08711215,0.050127000000000005,61.428571700000006,65.7634525,-180.098686
5512,6089,0.087351,0.0497843,61.428571700000006,60.892086,-203.9802625
5513,6090,0.0883655,0.04962295,61.428571700000006,56.0207195,-227.86183949999997
5514,6091,0.0889636,0.04890219999999999,61.428571700000006,51.14935299999999,-251.74341599999997
5515,6092,0.0899215,0.048219,61.428571700000006,46.277984599999996,-275.625
5516,6093,0.08998095,0.046751100000000004,61.428571700000006,41.406618099999996,-299.5065765
5517,6094,0.0894279,0.04497395,61.428571700000006,36.535251599999995,-323.388153
5518,6095,0.0867768,0.041949150000000004,61.428571700000006,31.6638832,-347.269745
5519,6096,0.031859200000000004,0.015206850000000001,61.428571700000006,26.7925167,-371.1513215
5520,6097,0.05434445,0.02773515,61.428571700000006,21.9211502,-395.032898
5521,6098,0.0705845,0.036463949999999995,61.428571700000006,17.049784199999998,-418.9144745
5522,6099,0.07784469999999999,0.040090650000000005,61.428571700000006,12.1784177,-442.796051
5523,6100,0.0826645,0.043807700000000005,61.428571700000006,7.30705118,-466.67762749999997
5524,6101,0.084514,0.04565105,61.428571700000006,2.43568468,-490.559204
5525,6102,0.08631420000000001,0.04777765,36.857142450000005,90.120285,-60.690788250000004
5526,6103,0.0862948,0.04860845,36.857142450000005,85.2489166,-84.5723686
5527,6104,0.08709105,0.04974295,36.857142450000005,80.377552,-108.45394885000002
5528,6105,0.08677535,0.04996690000000001,36.857142450000005,75.50618739999999,-132.335529
5529,6106,0.0873765,0.0504411,36.857142450000005,70.634819,-156.2171095
5530,6107,0.08730285,0.05023785,36.857142450000005,65.7634525,-180.098686
5531,6108,0.08798929999999999,0.050205150000000004,36.857142450000005,60.892086,-203.9802625
5532,6109,0.08814385,0.04956835,36.857142450000005,56.0207195,-227.86183949999997
5533,6110,0.0887581,0.04899345,36.857142450000005,51.14935299999999,-251.74341599999997
5534,6111,0.0887321,0.04777395,36.857142450000005,46.277984599999996,-275.625
5535,6112,0.08856839999999999,0.046443399999999996,36.857142450000005,41.406618099999996,-299.5065765
5536,6113,0.0873083,0.04434215,36.857142450000005,36.535251599999995,-323.388153
5537,6114,0.08471300000000001,0.041838200000000006,36.857142450000005,31.6638832,-347.269745
5538,6115,0.029918900000000002,0.0171998,36.857142450000005,26.7925167,-371.1513215
5539,6116,0.055800749999999996,0.03079245,36.857142450000005,21.9211502,-395.032898
5540,6117,0.06748835,0.035362,36.857142450000005,17.049784199999998,-418.9144745
5541,6118,0.07430865,0.03942295,36.857142450000005,12.1784177,-442.796051
5542,6119,0.07916039999999999,0.04240964999999999,36.857142450000005,7.30705118,-466.67762749999997
5543,6120,0.08261805,0.045267049999999996,36.857142450000005,2.43568468,-490.559204
5544,6121,0.08438325,0.04701465,12.28571415,90.120285,-60.690788250000004
5545,6122,0.08629600000000001,0.04886030000000001,12.28571415,85.248918525,-84.5723686
5546,6123,0.0867825,0.04967385,12.28571415,80.377553925,-108.45394885000002
5547,6124,0.0879083,0.0506546,12.28571415,75.50618739999999,-132.335529
5548,6125,0.08795905000000001,0.050777050000000004,12.28571415,70.634819,-156.2171095
5549,6126,0.08866315,0.0510374,12.28571415,65.7634525,-180.098686
5550,6127,0.0885377,0.05056815,12.28571415,60.892086,-203.9802625
5551,6128,0.0888569,0.0501446,12.28571415,56.0207195,-227.86183949999997
5552,6129,0.0884326,0.049048800000000004,12.28571415,51.14935299999999,-251.74341599999997
5553,6130,0.08802689999999999,0.047845399999999996,12.28571415,46.277984599999996,-275.625
5554,6131,0.08682325,0.0460049,12.28571415,41.406618099999996,-299.5065765
5555,6132,0.08483979999999999,0.0438447,12.28571415,36.535251599999995,-323.388153
5556,6133,0.08169325,0.04107305,12.28571415,31.663883674999997,-347.269745
5557,6134,0.0385611,0.01968445,12.28571415,26.792517175,-371.1513215
5558,6135,0.052027449999999996,0.029182600000000003,12.28571415,21.921150675,-395.032898
5559,6136,0.0606434,0.033177899999999996,12.28571415,17.049784199999998,-418.9144745
5560,6137,0.0699742,0.038045850000000006,12.28571415,12.178417465,-442.796051
5561,6138,0.07605310000000001,0.0417739,12.28571415,7.307050825000001,-466.67762749999997
5562,6139,0.08053919999999999,0.044767799999999996,12.28571415,2.435684085,-490.559204
5563,6140,0.084274,0.047477149999999996,1023.6571349999999,-2.435684085,-490.559204
5564,6141,0.0862552,0.049112,1023.6571349999999,-7.307050825,-466.67762749999997
5565,6142,0.08843880000000001,0.0507665,1023.6571349999999,-12.178417465,-442.796051
5566,6143,0.08912545,0.05139685,1023.6571349999999,-17.049784199999998,-418.9144745
5567,6144,0.09028929999999999,0.05212290000000001,1023.6571349999999,-21.921150675,-395.032898
5568,6145,0.09025375,0.0519628,1023.6571349999999,-26.792517174999997,-371.1513215
5569,6146,0.09061894999999999,0.05184695,1023.6571349999999,-31.663883674999997,-347.26974500000006
5570,6147,0.0899644,0.05095055,1023.6571349999999,-36.535251599999995,-323.388153
5571,6148,0.0893861,0.04995255,1023.6571349999999,-41.406618099999996,-299.5065765
5572,6149,0.08783745000000001,0.04825015,1023.6571349999999,-46.277984599999996,-275.625
5573,6150,0.08573990000000001,0.0462012,1023.6571349999999,-51.14935299999999,-251.743416
5574,6151,0.08263424999999999,0.04357835,1023.6571349999999,-56.0207195,-227.86183949999997
5575,6152,0.07773525,0.04019845,1023.6571349999999,-60.89208599999999,-203.98026249999998
5576,6153,0.07575555,0.0269902,1023.6571349999999,-65.7634525,-180.09868600000001
5577,6154,0.0727258,0.04080535,1023.6571349999999,-70.634819,-156.2171095
5578,6155,0.07158205000000001,0.04079615,1023.6571349999999,-75.50618739999999,-132.335529
5579,6156,0.0771589,0.0443278,1023.6571349999999,-80.377553925,-108.45394885000002
5580,6157,0.07479025,0.0429522,1023.6571349999999,-85.24891852500001,-84.5723686
5581,6158,0.07586760000000001,0.04366195,1023.6571349999999,-90.120285,-60.69078825
5582,6159,0.0747112,0.04302815,998.9714355,-2.43568468,-490.559204
5583,6160,0.07503380000000001,0.043263499999999996,998.9714355,-7.307051179999999,-466.67762749999997
5584,6161,0.07459745000000001,0.04303800000000001,998.9714355,-12.1784177,-442.796051
5585,6162,0.07472714999999999,0.04313115,998.9714355,-17.049784199999998,-418.9144745
5586,6163,0.0745733,0.0430465,998.9714355,-21.9211502,-395.032898
5587,6164,0.07468625000000001,0.04310309999999999,998.9714355,-26.7925167,-371.1513215
5588,6165,0.07464455,0.04305755,998.9714355,-31.6638832,-347.26974500000006
5589,6166,0.07485365,0.04314485,998.9714355,-36.535251599999995,-323.388153
5590,6167,0.07483580000000001,0.043086299999999994,998.9714355,-41.406618099999996,-299.5065765
5591,6168,0.07531225,0.0433085,998.9714355,-46.277984599999996,-275.625
5592,6169,0.07517789999999999,0.043155250000000006,998.9714355,-51.14935299999999,-251.743416
5593,6170,0.0761278,0.043651800000000004,998.9714355,-56.0207195,-227.86183949999997
5594,6171,0.07474454999999999,0.042712150000000004,998.9714355,-60.89208599999999,-203.98026249999998
5595,6172,0.0430419,0.01892415,998.9714355,-65.7634525,-180.09868600000001
5596,6173,0.07448670000000002,0.0417414,998.9714355,-70.634819,-156.2171095
5597,6174,0.07951145,0.0457043,998.9714355,-75.50618739999999,-132.335529
5598,6175,0.0771214,0.04415985,998.9714355,-80.377552,-108.45394885000002
5599,6176,0.0767905,0.044166149999999994,998.9714355,-85.2489166,-84.5723686
5600,6177,0.07579739999999999,0.04358605,998.9714355,-90.120285,-60.69078825
5601,6178,0.0758604,0.04371245,974.285736,-2.43568468,-490.559204
5602,6179,0.07554925,0.043560249999999995,974.285736,-7.307051179999999,-466.67762749999997
5603,6180,0.0755885,0.04361985,974.285736,-12.1784177,-442.796051
5604,6181,0.07547075,0.04356695,974.285736,-17.049784199999998,-418.9144745
5605,6182,0.07550799999999999,0.0435933,974.285736,-21.9211502,-395.032898
5606,6183,0.0754832,0.0435706,974.285736,-26.7925167,-371.1513215
5607,6184,0.07556244999999999,0.0435953,974.285736,-31.6638832,-347.26974500000006
5608,6185,0.07559155000000001,0.043576149999999994,974.285736,-36.535251599999995,-323.388153
5609,6186,0.0757587,0.043630150000000006,974.285736,-41.406618099999996,-299.5065765
5610,6187,0.07583265,0.0436028,974.285736,-46.277984599999996,-275.625
5611,6188,0.0762553,0.043797649999999994,974.285736,-51.14935299999999,-251.743416
5612,6189,0.0765797,0.04386615,974.285736,-56.0207195,-227.86183949999997
5613,6190,0.07764475,0.044476749999999995,974.285736,-60.89208599999999,-203.98026249999998
5614,6191,0.03328825,0.019083950000000002,974.285736,-65.7634525,-180.09868600000001
5615,6192,0.06958575,0.0398223,974.285736,-70.634819,-156.2171095
5616,6193,0.0798672,0.045397,974.285736,-75.50618739999999,-132.335529
5617,6194,0.07672899999999999,0.04404665,974.285736,-80.377552,-108.45394885000002
5618,6195,0.07720294999999999,0.0442933,974.285736,-85.2489166,-84.5723686
5619,6196,0.07619955,0.043862899999999996,974.285736,-90.120285,-60.69078825
5620,6197,0.07651455,0.044069449999999996,949.6000060000001,-2.43568468,-490.559204
5621,6198,0.07623960000000002,0.04396925,949.6000060000001,-7.307051179999999,-466.67762749999997
5622,6199,0.07635335,0.04405855,949.6000060000001,-12.1784177,-442.796051
5623,6200,0.07625685,0.044022149999999996,949.6000060000001,-17.049784199999998,-418.9144745
5624,6201,0.0763085,0.044056,949.6000060000001,-21.9211502,-395.032898
5625,6202,0.0762843,0.0440335,949.6000060000001,-26.7925167,-371.1513215
5626,6203,0.07635229999999998,0.044051349999999996,949.6000060000001,-31.6638832,-347.26974500000006
5627,6204,0.076348,0.044016650000000004,949.6000060000001,-36.535251599999995,-323.388153
5628,6205,0.07647975,0.044041449999999996,949.6000060000001,-41.406618099999996,-299.5065765
5629,6206,0.0764369,0.0439667,949.6000060000001,-46.277984599999996,-275.625
5630,6207,0.0767988,0.0440791,949.6000060000001,-51.14935299999999,-251.743416
5631,6208,0.07674975,0.04399765,949.6000060000001,-56.0207195,-227.86183949999997
5632,6209,0.07795174999999999,0.044487,949.6000060000001,-60.89208599999999,-203.98026249999998
5633,6210,0.05257284999999999,0.02360695,949.6000060000001,-65.7634525,-180.09868600000001
5634,6211,0.0662941,0.03811835000000001,949.6000060000001,-70.634819,-156.2171095
5635,6212,0.06946645,0.03975015,949.6000060000001,-75.50618739999999,-132.335529
5636,6213,0.07744904999999999,0.0443549,949.6000060000001,-80.377552,-108.45394885000002
5637,6214,0.07572704999999999,0.043511850000000005,949.6000060000001,-85.2489166,-84.5723686
5638,6215,0.07750895,0.04458735,949.6000060000001,-90.120285,-60.69078825
5639,6216,0.0766581,0.04416490000000001,924.914276,-2.43568468,-490.559204
5640,6217,0.0772262,0.044528,924.914276,-7.307051179999999,-466.67762749999997
5641,6218,0.0769114,0.044377799999999995,924.914276,-12.1784177,-442.796051
5642,6219,0.0771175,0.04451245,924.914276,-17.049784199999998,-418.9144745
5643,6220,0.0769959,0.0444466,924.914276,-21.9211502,-395.032898
5644,6221,0.0771091,0.044503799999999996,924.914276,-26.7925167,-371.1513215
5645,6222,0.0770363,0.044441049999999996,924.914276,-31.6638832,-347.26974500000006
5646,6223,0.07717695,0.0444887,924.914276,-36.535251599999995,-323.388153
5647,6224,0.07702635,0.04435795,924.914276,-41.406618099999996,-299.5065765
5648,6225,0.07730775000000001,0.044458450000000004,924.914276,-46.277984599999996,-275.625
5649,6226,0.076789,0.04409435,924.914276,-51.14935299999999,-251.743416
5650,6227,0.07727165,0.0442676,924.914276,-56.0207195,-227.86183949999997
5651,6228,0.0747562,0.0427523,924.914276,-60.89208599999999,-203.98026249999998
5652,6509,1.03137e-15,0.0,924.914276,-65.7634525,-180.09868600000001
5653,6510,2.104155e-15,3.81378e-16,924.914276,-70.634819,-156.2171095
5654,6511,6.611975e-16,3.81378e-16,924.914276,-75.50618739999999,-132.335529
5655,6512,1.0086905000000001e-15,0.0,924.914276,-80.377552,-108.45394885000002
5656,6513,1.991665e-15,1.144135e-15,924.914276,-85.2489166,-84.5723686
5657,6514,2.2525000000000002e-15,1.1441344999999999e-15,924.914276,-90.120285,-60.69078825
5658,6515,1.0587215000000001e-15,0.0,900.2285764999999,-2.43568468,-490.559204
5659,6516,1.65938e-15,7.627565e-16,900.2285764999999,-7.307051179999999,-466.67762749999997
5660,6517,1.0283185e-15,0.0,900.2285764999999,-12.1784177,-442.796051
5661,6518,3.0488099999999995e-16,0.0,900.2285764999999,-17.049784199999998,-418.9144745
5662,6519,2.6806799999999995e-16,0.0,900.2285764999999,-21.9211502,-395.032898
5663,6520,1.47308e-15,-7.627564999999999e-16,900.2285764999999,-26.7925167,-371.1513215
5664,6521,3.291955e-15,7.627564999999998e-16,900.2285764999999,-31.6638832,-347.26974500000006
5665,6522,1.418255e-15,-7.627565e-16,900.2285764999999,-36.535251599999995,-323.388153
5666,6523,0.203413,0.05387125,900.2285764999999,-41.406618099999996,-299.5065765
5667,6524,0.251057,0.0518177,900.2285764999999,-46.277984599999996,-275.625
5668,6525,0.2193465,0.053626099999999996,900.2285764999999,-51.14935299999999,-251.743416
5669,6526,0.24075300000000002,0.046368400000000004,900.2285764999999,-56.0207195,-227.86183949999997
5670,6527,0.21485300000000002,0.0458278,900.2285764999999,-60.89208599999999,-203.98026249999998
5671,6528,0.233755,0.03858415,900.2285764999999,-65.7634525,-180.09868600000001
5672,6529,0.210016,0.0419088,900.2285764999999,-70.634819,-156.2171095
5673,6530,0.22466550000000002,0.034417,900.2285764999999,-75.50618739999999,-132.335529
5674,6531,0.2039605,0.038826849999999996,900.2285764999999,-80.377552,-108.45394885000002
5675,6532,0.21745750000000003,0.032462050000000006,900.2285764999999,-85.2489166,-84.5723686
5676,6533,0.1983205,0.03769725,900.2285764999999,-90.120285,-60.69078825
5677,6534,0.2097075,0.030757400000000004,875.5428769999999,-2.43568468,-490.559204
5678,6535,0.1922265,0.035466750000000005,875.5428769999999,-7.307051179999999,-466.67762749999997
5679,6536,0.201666,0.029738650000000002,875.5428769999999,-12.1784177,-442.796051
5680,6537,0.1839695,0.03370190000000001,875.5428769999999,-17.049784199999998,-418.9144745
5681,6538,0.1923555,0.02677815,875.5428769999999,-21.9211502,-395.032898
5682,6539,0.173858,0.029580699999999998,875.5428769999999,-26.7925167,-371.1513215
5683,6540,0.17893150000000002,0.02380425,875.5428769999999,-31.6638832,-347.26974500000006
5684,6541,0.1560805,0.02776675,875.5428769999999,-36.535251599999995,-323.388153
5685,6542,0.167161,0.01969875,875.5428769999999,-41.406618099999996,-299.5065765
5686,6543,0.1523435,0.049520549999999997,875.5428769999999,-46.277984599999996,-275.625
5687,6544,0.1863955,0.04646455000000001,875.5428769999999,-51.14935299999999,-251.743416
5688,6545,0.1625075,0.049618550000000004,875.5428769999999,-56.0207195,-227.86183949999997
5689,6546,0.1763185,0.0426077,875.5428769999999,-60.89208599999999,-203.98026249999998
5690,6547,0.15687600000000002,0.04380675,875.5428769999999,-65.7634525,-180.09868600000001
5691,6548,0.167987,0.03661645,875.5428769999999,-70.634819,-156.2171095
5692,6549,0.15140800000000001,0.0408351,875.5428769999999,-75.50618739999999,-132.335529
5693,6550,0.1590705,0.03363725,875.5428769999999,-80.377552,-108.45394885000002
5694,6551,0.1455505,0.038638599999999995,875.5428769999999,-85.2489166,-84.5723686
5695,6552,0.15184599999999998,0.03217795,875.5428769999999,-90.120285,-60.69078825
5696,6553,0.1402585,0.0378855,850.8571469999999,-2.43568468,-490.559204
5697,6554,0.1443965,0.031041449999999998,850.8571469999999,-7.307051179999999,-466.67762749999997
5698,6555,0.1347365,0.0365404,850.8571469999999,-12.1784177,-442.796051
5699,6556,0.136991,0.0305184,850.8571469999999,-17.049784199999998,-418.9144745
5700,6557,0.1280575,0.03572285,850.8571469999999,-21.9211502,-395.032898
5701,6558,0.128292,0.028745800000000002,850.8571469999999,-26.7925167,-371.1513215
5702,6559,0.1203515,0.0335883,850.8571469999999,-31.6638832,-347.26974500000006
5703,6560,0.11742999999999999,0.02756495,850.8571469999999,-36.535251599999995,-323.388153
5704,6561,0.10891999999999999,0.0321175,850.8571469999999,-41.406618099999996,-299.5065765
5705,6562,0.106544,0.025051900000000002,850.8571469999999,-46.277984599999996,-275.625
5706,6563,0.10531299999999999,0.04495110000000001,850.8571469999999,-51.14935299999999,-251.743416
5707,6564,0.12406149999999999,0.04083135,850.8571469999999,-56.0207195,-227.86183949999997
5708,6565,0.1098875,0.045347,850.8571469999999,-60.89208599999999,-203.98026249999998
5709,6566,0.1150075,0.0386416,850.8571469999999,-65.7634525,-180.09868600000001
5710,6567,0.103762,0.04161595,850.8571469999999,-70.634819,-156.2171095
5711,6568,0.10564200000000001,0.0343821,850.8571469999999,-75.50618739999999,-132.335529
5712,6569,0.09789914999999999,0.03939455,850.8571469999999,-80.377552,-108.45394885000002
5713,6570,0.097714,0.032577400000000006,850.8571469999999,-85.2489166,-84.5723686
5714,6571,0.0931467,0.03825315,850.8571469999999,-90.120285,-60.69078825
5715,6572,0.0907238,0.0314275,826.171417,-2.43568468,-490.559204
5716,6573,0.08855125,0.03751085,826.171417,-7.307051179999999,-466.67762749999997
5717,6574,0.0850322,0.03109415,826.171417,-12.1784177,-442.796051
5718,6575,0.08514805,0.037486599999999995,826.171417,-17.049784199999998,-418.9144745
5719,6576,0.0787409,0.03054365,826.171417,-21.9211502,-395.032898
5720,6577,0.0814092,0.0372333,826.171417,-26.7925167,-371.1513215
5721,6578,0.0739772,0.0309776,826.171417,-31.6638832,-347.26974500000006
5722,6579,0.07860995,0.03764435,826.171417,-36.535251599999995,-323.388153
5723,6580,0.06814125,0.0305505,826.171417,-41.406618099999996,-299.5065765
5724,6581,0.0759303,0.03771695,826.171417,-46.277984599999996,-275.625
5725,6582,0.06401505,0.03141745,826.171417,-51.14935299999999,-251.743416
5726,6583,0.0716907,0.0366202,826.171417,-56.0207195,-227.86183949999997
5727,6584,0.058447950000000005,0.03067265,826.171417,-60.89208599999999,-203.98026249999998
5728,6585,0.07508845,0.04266755,826.171417,-65.7634525,-180.09868600000001
5729,6586,0.0710861,0.0377069,826.171417,-70.634819,-156.2171095
5730,6587,0.07691139999999999,0.0437004,826.171417,-75.50618739999999,-132.335529
5731,6588,0.06586700000000001,0.0365973,826.171417,-80.377552,-108.45394885000002
5732,6589,0.07526044999999999,0.042958300000000005,826.171417,-85.2489166,-84.5723686
5733,6590,0.06309614999999999,0.0360708,826.171417,-90.120285,-60.69078825
5734,6591,0.07278470000000001,0.04162995,801.4857175,-2.43568468,-490.559204
5735,6592,0.06255295,0.03607845,801.4857175,-7.307051179999999,-466.67762749999997
5736,6593,4.93621e-15,4.767225e-16,801.4857175,-12.1784177,-442.796051
5737,6594,3.2305099999999997e-15,3.8137799999999996e-16,801.4857175,-17.049784199999998,-418.9144745
5738,6595,1.9372600000000002e-15,5.720674999999999e-16,801.4857175,-21.9211502,-395.032898
5739,6596,1.2171554999999999e-15,3.813785e-16,801.4857175,-26.7925167,-371.1513215
5740,6597,1.86292e-15,4.76723e-16,801.4857175,-31.6638832,-347.26974500000006
5741,6598,2.1677549999999997e-15,7.627565e-16,801.4857175,-36.535251599999995,-323.388153
5742,6599,6.127135e-16,1.906892e-16,801.4857175,-41.406618099999996,-299.5065765
5743,6600,2.3486249999999998e-15,5.720675e-16,801.4857175,-46.277984599999996,-275.625
5744,6601,2.816085e-15,-1.525515e-15,801.4857175,-51.14935299999999,-251.743416
5745,6602,1.589665e-15,5.720675e-16,801.4857175,-56.0207195,-227.86183949999997
5746,6603,8.375355e-16,3.813785e-16,801.4857175,-60.89208599999999,-203.98026249999998
5747,6604,2.3135549999999998e-15,5.720674999999999e-16,801.4857175,-65.7634525,-180.09868600000001
5748,6605,4.149319999999999e-15,-1.906893e-16,801.4857175,-70.634819,-156.2171095
5749,6606,1.7581399999999998e-15,-9.53446e-16,801.4857175,-75.50618739999999,-132.335529
5750,6607,4.493370000000001e-15,1.1441369999999998e-15,801.4857175,-80.377552,-108.45394885000002
5751,6608,7.48206e-16,1.9068899999999998e-16,801.4857175,-85.2489166,-84.5723686
5752,6609,2.495405e-15,-1.144135e-15,801.4857175,-90.120285,-60.69078825
5753,6610,2.4241849999999998e-15,-7.627569999999999e-16,776.8000180000001,-2.43568468,-490.559204
5754,6611,1.4308549999999999e-15,3.8137800000000006e-16,776.8000180000001,-7.307051179999999,-466.67762749999997
5755,6612,2.1071399999999998e-15,1.90689e-16,776.8000180000001,-12.1784177,-442.796051
5756,6613,1.0815235e-15,-1.9068899999999998e-16,776.8000180000001,-17.049784199999998,-418.9144745
5757,6614,2.00114e-15,1.1441330000000002e-15,776.8000180000001,-21.9211502,-395.032898
5758,6615,3.1406150000000003e-15,9.534455000000002e-16,776.8000180000001,-26.7925167,-371.1513215
5759,6616,4.01291e-15,-1.9068925e-16,776.8000180000001,-31.6638832,-347.26974500000006
5760,6617,1.1954015000000002e-15,0.0,776.8000180000001,-36.535251599999995,-323.388153
5761,6618,2.1685649999999998e-15,1.90689e-16,776.8000180000001,-41.406618099999996,-299.5065765
5762,6619,3.14344e-15,1.90689e-16,776.8000180000001,-46.277984599999996,-275.625
5763,6620,3.63692e-15,-1.1441335e-15,776.8000180000001,-51.14935299999999,-251.743416
5764,6621,1.1074755e-15,0.0,776.8000180000001,-56.0207195,-227.86183949999997
5765,6622,1.94922e-15,7.627564999999999e-16,776.8000180000001,-60.89208599999999,-203.98026249999998
5766,6623,1.1302895e-15,0.0,776.8000180000001,-65.7634525,-180.09868600000001
5767,6624,1.23504e-15,3.8137800000000006e-16,776.8000180000001,-70.634819,-156.2171095
5768,6625,2.772425e-15,-1.1441349999999998e-15,776.8000180000001,-75.50618739999999,-132.335529
5769,6626,2.6901499999999997e-15,7.627565e-16,776.8000180000001,-80.377552,-108.45394885000002
5770,6627,2.3522e-15,0.0,776.8000180000001,-85.2489166,-84.5723686
5771,6628,1.7034449999999998e-15,-7.627565e-16,776.8000180000001,-90.120285,-60.69078825
5772,6629,2.278845e-15,-1.144135e-15,752.1142880000001,-2.43568468,-490.559204
5773,6630,2.235335e-15,3.81378e-16,752.1142880000001,-7.307051179999999,-466.67762749999997
5774,6631,1.650975e-15,3.8137849999999997e-16,752.1142880000001,-12.1784177,-442.796051
5775,6632,1.3933749999999999e-15,3.8137849999999997e-16,752.1142880000001,-17.049784199999998,-418.9144745
5776,6633,5.351085e-16,0.0,752.1142880000001,-21.9211502,-395.032898
5777,6634,5.101080000000001e-16,0.0,752.1142880000001,-26.7925167,-371.1513215
