,Element,S.Mises.mean,S.S12.mean,intpointx,intpointy,intpointz
0,1732,0.01240995,-0.006659615,2578.447875,89.6875,0.0
1,1733,0.015192250000000001,-0.008735360000000001,2578.447875,64.0625,0.0
2,1734,0.0162033,-0.009303785,2578.447875,38.4375,0.0
3,1735,0.0171666,-0.009859255,2578.447875,12.8125,0.0
4,1736,0.01730135,-0.00995779,2578.447875,-12.8125,0.0
5,1737,0.0166536,-0.009572009999999999,2578.447875,-38.4375,0.0
6,1738,0.016177,-0.00925013,2578.447875,-64.0625,0.0
7,1739,0.01473885,-0.007315475,2578.447875,-89.6875,0.0
8,1740,0.010626549999999998,-0.00613074,2553.34375,89.6875,0.0
9,1741,0.01588635,-0.0091119,2553.34375,64.0625,0.0
10,1742,0.0172959,-0.00984394,2553.34375,38.4375,0.0
11,1743,0.017930500000000002,-0.01029205,2553.34375,12.8125,0.0
12,1744,0.01801515,-0.0103702,2553.34375,-12.8125,0.0
13,1745,0.01746085,-0.0100639,2553.34375,-38.4375,0.0
14,1746,0.0165589,-0.00949273,2553.34375,-64.0625,0.0
15,1747,0.011713399999999999,-0.0064813349999999995,2553.34375,-89.6875,0.0
16,1748,0.0105845,-0.0058001500000000004,2528.239625,89.6875,0.0
17,1749,0.015285149999999997,-0.008619835,2528.239625,64.0625,0.0
18,1750,0.01816665,-0.01032955,2528.239625,38.4375,0.0
19,1751,0.0188505,-0.01079145,2528.239625,12.8125,0.0
20,1752,0.01877375,-0.0108252,2528.239625,-12.8125,0.0
21,1753,0.018201799999999997,-0.01050105,2528.239625,-38.4375,0.0
22,1754,0.0152727,-0.008815355,2528.239625,-64.0625,0.0
23,1755,0.01055995,-0.0060831,2528.239625,-89.6875,0.0
24,1756,0.01202305,-0.005765859999999999,2503.135375,89.6875,0.0
25,1757,0.0158097,-0.00857252,2503.135375,64.0625,0.0
26,1758,0.018318549999999996,-0.0103096,2503.135375,38.4375,0.0
27,1759,0.019457349999999998,-0.011140649999999998,2503.135375,12.8125,0.0
28,1760,0.019420299999999998,-0.011197249999999999,2503.135375,-12.8125,0.0
29,1761,0.0179744,-0.0103702,2503.135375,-38.4375,0.0
30,1762,0.0152652,-0.00872798,2503.135375,-64.0625,0.0
31,1763,0.01109605,-0.00606404,2503.135375,-89.6875,0.0
32,1764,0.01407465,-0.0058616350000000005,2478.03125,89.6875,0.0
33,1765,0.016693,-0.00860966,2478.03125,64.0625,0.0
34,1766,0.01857815,-0.010298350000000001,2478.03125,38.4375,0.0
35,1767,0.01974985,-0.011268,2478.03125,12.8125,0.0
36,1768,0.019486,-0.0112466,2478.03125,-12.8125,0.0
37,1769,0.01801415,-0.01035175,2478.03125,-38.4375,0.0
38,1770,0.01562865,-0.00870594,2478.03125,-64.0625,0.0
39,1771,0.0123354,-0.00608346,2478.03125,-89.6875,0.0
40,1772,0.0164341,-0.005809695,2452.927125,89.6875,0.0
41,1773,0.0178867,-0.008674600000000001,2452.927125,64.0625,0.0
42,1774,0.019460150000000002,-0.0106289,2452.927125,38.4375,0.0
43,1775,0.019150550000000002,-0.010939899999999999,2452.927125,12.8125,0.0
44,1776,0.01892905,-0.0109217,2452.927125,-12.8125,0.0
45,1777,0.0185081,-0.0105568,2452.927125,-38.4375,0.0
46,1778,0.0163064,-0.008702265,2452.927125,-64.0625,0.0
47,1779,0.01404485,-0.0059675,2452.927125,-89.6875,0.0
48,1780,0.0203812,-0.006529155,2427.822875,89.6875,0.0
49,1781,0.02051455,-0.009805025,2427.822875,64.0625,0.0
50,1782,0.018572449999999997,-0.0101801,2427.822875,38.4375,0.0
51,1783,0.0181763,-0.0103216,2427.822875,12.8125,0.0
52,1784,0.017808249999999998,-0.010277850000000002,2427.822875,-12.8125,0.0
53,1785,0.0175342,-0.010008375,2427.822875,-38.4375,0.0
54,1786,0.018402599999999998,-0.00956973,2427.822875,-64.0625,0.0
55,1787,0.01731475,-0.006446165,2427.822875,-89.6875,0.0
56,1788,0.025111550000000003,-0.008702695,2402.71875,89.6875,0.0
57,1789,0.019561500000000002,-0.009640655,2402.71875,64.0625,0.0
58,1790,0.0171151,-0.00916778,2402.71875,38.4375,0.0
59,1791,0.016514650000000002,-0.009383305,2402.71875,12.8125,0.0
60,1792,0.01609565,-0.009285795,2402.71875,-12.8125,0.0
61,1793,0.01590165,-0.00897594,2402.71875,-38.4375,0.0
62,1794,0.01738045,-0.00917331,2402.71875,-64.0625,0.0
63,1795,0.02159325,-0.00806636,2402.71875,-89.6875,0.0
64,1796,0.01384765,-0.0032332050000000003,2377.614625,89.6875,0.0
65,1797,0.01627295,-0.00610094,2377.614625,64.0625,0.0
66,1798,0.01635675,-0.007624105000000001,2377.614625,38.4375,0.0
67,1799,0.01594315,-0.008439700000000001,2377.614625,12.8125,0.0
68,1800,0.0154496,-0.008761425,2377.614625,-12.8125,0.0
69,1801,0.014597249999999999,-0.00839556,2377.614625,-38.4375,0.0
70,1802,0.01387045,-0.00770199,2377.614625,-64.0625,0.0
71,1803,0.009874754999999999,-0.00531511,2377.614625,-89.6875,0.0
72,1804,0.018739699999999998,-0.004558665,2352.510375,89.6875,0.0
73,1805,0.0187527,-0.00662807,2352.510375,64.0625,0.0
74,1806,0.017365850000000002,-0.00759491,2352.510375,38.4375,0.0
75,1807,0.01603045,-0.008279305,2352.510375,12.8125,0.0
76,1808,0.01498075,-0.0084817,2352.510375,-12.8125,0.0
77,1809,0.014413450000000001,-0.008261609999999999,2352.510375,-38.4375,0.0
78,1810,0.01412235,-0.00770554,2352.510375,-64.0625,0.0
79,1811,0.0117417,-0.005443035000000001,2352.510375,-89.6875,0.0
80,1812,0.0212273,-0.004676235,2327.40625,89.6875,0.0
81,1813,0.0201553,-0.00692651,2327.40625,64.0625,0.0
82,1814,0.0186614,-0.008024735,2327.40625,38.4375,0.0
83,1815,0.0166742,-0.008527429999999999,2327.40625,12.8125,0.0
84,1816,0.015263,-0.0086467,2327.40625,-12.8125,0.0
85,1817,0.014804900000000001,-0.008478989999999999,2327.40625,-38.4375,0.0
86,1818,0.01394605,-0.00736695,2327.40625,-64.0625,0.0
87,1819,0.0133146,-0.005223835,2327.40625,-89.6875,0.0
88,1820,0.023824449999999997,-0.0046314749999999995,2302.302125,89.6875,0.0
89,1821,0.0214441,-0.00688625,2302.302125,64.0625,0.0
90,1822,0.019412,-0.008253545000000001,2302.302125,38.4375,0.0
91,1823,0.017396000000000002,-0.008843495,2302.302125,12.8125,0.0
92,1824,0.01582725,-0.00898339,2302.302125,-12.8125,0.0
93,1825,0.014730900000000002,-0.00841476,2302.302125,-38.4375,0.0
94,1826,0.0144186,-0.007226735,2302.302125,-64.0625,0.0
95,1827,0.01515745,-0.005185250000000001,2302.302125,-89.6875,0.0
96,1828,0.02616665,-0.00472706,2277.197875,89.6875,0.0
97,1829,0.02289985,-0.006856330000000001,2277.197875,64.0625,0.0
98,1830,0.0202433,-0.008330845,2277.197875,38.4375,0.0
99,1831,0.01793075,-0.009117295000000001,2277.197875,12.8125,0.0
100,1832,0.01601855,-0.00910109,2277.197875,-12.8125,0.0
101,1833,0.01507265,-0.008521855,2277.197875,-38.4375,0.0
102,1834,0.01510825,-0.00713251,2277.197875,-64.0625,0.0
103,1835,0.01694035,-0.00519401,2277.197875,-89.6875,0.0
104,1836,0.02860285,-0.00461229,2252.09375,89.6875,0.0
105,1837,0.0245585,-0.006937075,2252.09375,64.0625,0.0
106,1838,0.021156,-0.008481414999999999,2252.09375,38.4375,0.0
107,1839,0.01821855,-0.009182915,2252.09375,12.8125,0.0
108,1840,0.01627075,-0.009280165,2252.09375,-12.8125,0.0
109,1841,0.0153486,-0.008555345,2252.09375,-38.4375,0.0
110,1842,0.016207150000000003,-0.007189615,2252.09375,-64.0625,0.0
111,1843,0.01887855,-0.005068775,2252.09375,-89.6875,0.0
112,1844,0.03107865,-0.00489807,2226.989625,89.6875,0.0
113,1845,0.026161450000000003,-0.00703949,2226.989625,64.0625,0.0
114,1846,0.0218512,-0.00843931,2226.989625,38.4375,0.0
115,1847,0.018853250000000002,-0.009428039999999999,2226.989625,12.8125,0.0
116,1848,0.01632715,-0.009362635,2226.989625,-12.8125,0.0
117,1849,0.015579699999999998,-0.00851959,2226.989625,-38.4375,0.0
118,1850,0.017307200000000002,-0.007170475000000001,2226.989625,-64.0625,0.0
119,1851,0.02091685,-0.005183274999999999,2226.989625,-89.6875,0.0
120,1852,0.03336125,-0.004761395,2201.885375,89.6875,0.0
121,1853,0.027941849999999997,-0.007133769999999999,2201.885375,64.0625,0.0
122,1854,0.023381350000000002,-0.00905156,2201.885375,38.4375,0.0
123,1855,0.01815255,-0.00917339,2201.885375,12.8125,0.0
124,1856,0.01590325,-0.009096605,2201.885375,-12.8125,0.0
125,1857,0.0164386,-0.008783435,2201.885375,-38.4375,0.0
126,1858,0.01846765,-0.007075375,2201.885375,-64.0625,0.0
127,1859,0.02285475,-0.004890115,2201.885375,-89.6875,0.0
128,1860,0.03736705,-0.0058428149999999995,2176.78125,89.6875,0.0
129,1861,0.030690349999999998,-0.008892134999999999,2176.78125,64.0625,0.0
130,1862,0.02193075,-0.00874962,2176.78125,38.4375,0.0
131,1863,0.0172733,-0.00846775,2176.78125,12.8125,0.0
132,1864,0.0144752,-0.008320310000000001,2176.78125,-12.8125,0.0
133,1865,0.015171150000000001,-0.008176949999999999,2176.78125,-38.4375,0.0
134,1866,0.020713500000000003,-0.008041685,2176.78125,-64.0625,0.0
135,1867,0.0260971,-0.00535986,2176.78125,-89.6875,0.0
136,1868,0.040815950000000004,-0.009792195,2151.677125,89.6875,0.0
137,1869,0.027745700000000005,-0.009036155,2151.677125,64.0625,0.0
138,1870,0.0199572,-0.00727119,2151.677125,38.4375,0.0
139,1871,0.0146101,-0.0070310500000000005,2151.677125,12.8125,0.0
140,1872,0.0117522,-0.006719205,2151.677125,-12.8125,0.0
141,1873,0.012812849999999999,-0.006617075,2151.677125,-38.4375,0.0
142,1874,0.01840415,-0.00751223,2151.677125,-64.0625,0.0
143,1875,0.029091650000000004,-0.00772777,2151.677125,-89.6875,0.0
144,1876,0.03154465,0.000449011,2126.572875,89.6875,0.0
145,1877,0.0258012,-0.00337062,2126.572875,64.0625,0.0
146,1878,0.02144615,-0.005972875,2126.572875,38.4375,0.0
147,1879,0.0170099,-0.0070912300000000004,2126.572875,12.8125,0.0
148,1880,0.01418265,-0.00768985,2126.572875,-12.8125,0.0
149,1881,0.012874150000000001,-0.007284235,2126.572875,-38.4375,0.0
150,1882,0.01397755,-0.006237315,2126.572875,-64.0625,0.0
151,1883,0.01450095,-0.003259455,2126.572875,-89.6875,0.0
152,1884,0.03659005,-0.00293808,2101.46875,89.6875,0.0
153,1885,0.03051885,-0.0040669650000000005,2101.46875,64.0625,0.0
154,1886,0.023007800000000002,-0.0053482700000000005,2101.46875,38.4375,0.0
155,1887,0.01713155,-0.006313455,2101.46875,12.8125,0.0
156,1888,0.0124889,-0.00662106,2101.46875,-12.8125,0.0
157,1889,0.01179525,-0.006535235,2101.46875,-38.4375,0.0
158,1890,0.01492615,-0.00588592,2101.46875,-64.0625,0.0
159,1891,0.019291799999999998,-0.004401025,2101.46875,-89.6875,0.0
160,1892,0.0383521,-0.0035020299999999997,2076.364625,89.6875,0.0
161,1893,0.0321105,-0.005277779999999999,2076.364625,64.0625,0.0
162,1894,0.0250249,-0.005712129999999999,2076.364625,38.4375,0.0
163,1895,0.01770225,-0.006300565,2076.364625,12.8125,0.0
164,1896,0.01249795,-0.00653801,2076.364625,-12.8125,0.0
165,1897,0.011725,-0.00641749,2076.364625,-38.4375,0.0
166,1898,0.01550255,-0.0059524,2076.364625,-64.0625,0.0
167,1899,0.0210111,-0.004250255,2076.364625,-89.6875,0.0
168,1900,0.0406238,-0.00347856,2051.260435,89.6875,0.0
169,1901,0.0330924,-0.0051725799999999995,2051.260435,64.0625,0.0
170,1902,0.025934449999999998,-0.0063123499999999996,2051.260435,38.4375,0.0
171,1903,0.0185525,-0.006567475,2051.260435,12.8125,0.0
172,1904,0.0128246,-0.006733009999999999,2051.260435,-12.8125,0.0
173,1905,0.011946950000000001,-0.00655529,2051.260435,-38.4375,0.0
174,1906,0.01587215,-0.00560163,2051.260435,-64.0625,0.0
175,1907,0.0227165,-0.004213945,2051.260435,-89.6875,0.0
176,1908,0.042631249999999996,-0.003583215,2026.15625,89.6875,0.0
177,1909,0.034565399999999996,-0.0053207,2026.15625,64.0625,0.0
178,1910,0.02651245,-0.006304815,2026.15625,38.4375,0.0
179,1911,0.0191926,-0.006946665,2026.15625,12.8125,0.0
180,1912,0.013258949999999999,-0.006978575,2026.15625,-12.8125,0.0
181,1913,0.012027,-0.00651443,2026.15625,-38.4375,0.0
182,1914,0.01682215,-0.0056777649999999995,2026.15625,-64.0625,0.0
183,1915,0.024273700000000002,-0.004160425000000001,2026.15625,-89.6875,0.0
184,1916,0.04449835,-0.00362054,2001.052065,89.6875,0.0
185,1917,0.03576615,-0.005269045,2001.052065,64.0625,0.0
186,1918,0.02753925,-0.00650481,2001.052065,38.4375,0.0
187,1919,0.019558,-0.007100245,2001.052065,12.8125,0.0
188,1920,0.0134624,-0.007148245,2001.052065,-12.8125,0.0
189,1921,0.0125717,-0.00669434,2001.052065,-38.4375,0.0
190,1922,0.01773695,-0.00561446,2001.052065,-64.0625,0.0
191,1923,0.025759749999999998,-0.0042016399999999995,2001.052065,-89.6875,0.0
192,1924,0.04650195,-0.003521525,1975.9479350000001,89.6875,0.0
193,1925,0.03734615,-0.00538018,1975.9479350000001,64.0625,0.0
194,1926,0.028356349999999995,-0.0066575950000000005,1975.9479350000001,38.4375,0.0
195,1927,0.01995735,-0.007250815000000001,1975.9479350000001,12.8125,0.0
196,1928,0.013693249999999999,-0.007344389999999999,1975.9479350000001,-12.8125,0.0
197,1929,0.01305445,-0.00678389,1975.9479350000001,-38.4375,0.0
198,1930,0.018909099999999998,-0.005699255,1975.9479350000001,-64.0625,0.0
199,1931,0.02744315,-0.00405611,1975.9479350000001,-89.6875,0.0
200,1932,0.048449849999999996,-0.003878905,1950.84375,89.6875,0.0
201,1933,0.03867065,-0.005538045,1950.84375,64.0625,0.0
202,1934,0.02915525,-0.006647035,1950.84375,38.4375,0.0
203,1935,0.02075205,-0.007615525,1950.84375,12.8125,0.0
204,1936,0.013737550000000001,-0.007530139999999999,1950.84375,-12.8125,0.0
205,1937,0.01335235,-0.006722775,1950.84375,-38.4375,0.0
206,1938,0.0200629,-0.00567961,1950.84375,-64.0625,0.0
207,1939,0.02908255,-0.0041354949999999994,1950.84375,-89.6875,0.0
208,1940,0.050143599999999997,-0.003734495,1925.739565,89.6875,0.0
209,1941,0.04032775,-0.00562876,1925.739565,64.0625,0.0
210,1942,0.030695649999999998,-0.007532560000000001,1925.739565,38.4375,0.0
211,1943,0.0198442,-0.00746734,1925.739565,12.8125,0.0
212,1944,0.013456099999999999,-0.00729898,1925.739565,-12.8125,0.0
213,1945,0.0144844,-0.007040205,1925.739565,-38.4375,0.0
214,1946,0.021161450000000002,-0.00542005,1925.739565,-64.0625,0.0
215,1947,0.030623749999999998,-0.003771245,1925.739565,-89.6875,0.0
216,1948,0.053784500000000006,-0.00515103,1900.6354350000001,89.6875,0.0
217,1949,0.04264195,-0.008012725,1900.6354350000001,64.0625,0.0
218,1950,0.0284526,-0.007379305000000001,1900.6354350000001,38.4375,0.0
219,1951,0.019072650000000003,-0.006695660000000001,1900.6354350000001,12.8125,0.0
220,1952,0.011709349999999999,-0.006438255,1900.6354350000001,-12.8125,0.0
221,1953,0.012856300000000001,-0.0063165700000000005,1900.6354350000001,-38.4375,0.0
222,1954,0.023133349999999997,-0.00643991,1900.6354350000001,-64.0625,0.0
223,1955,0.0333233,-0.004150355,1900.6354350000001,-89.6875,0.0
224,1956,0.05567640000000001,-0.01076415,1875.53125,89.6875,0.0
225,1957,0.0375872,-0.008470354999999999,1875.53125,64.0625,0.0
226,1958,0.025986250000000002,-0.00554477,1875.53125,38.4375,0.0
227,1959,0.015871450000000002,-0.004867545,1875.53125,12.8125,0.0
228,1960,0.008356085,-0.004293195,1875.53125,-12.8125,0.0
229,1961,0.010088594999999999,-0.004352180000000001,1875.53125,-38.4375,0.0
230,1962,0.019652199999999995,-0.00569388,1875.53125,-64.0625,0.0
231,1963,0.034642150000000003,-0.007047665,1875.53125,-89.6875,0.0
232,1964,0.0493508,0.0039372899999999995,1850.427065,89.6875,0.0
233,1965,0.0369904,-0.0006773155,1850.427065,64.0625,0.0
234,1966,0.028470950000000002,-0.004304265,1850.427065,38.4375,0.0
235,1967,0.0198203,-0.00569773,1850.427065,12.8125,0.0
236,1968,0.01353875,-0.006570875,1850.427065,-12.8125,0.0
237,1969,0.011223799999999999,-0.006201655,1850.427065,-38.4375,0.0
238,1970,0.01521525,-0.004864755,1850.427065,-64.0625,0.0
239,1971,0.021866399999999998,-0.001508945,1850.427065,-89.6875,0.0
240,1972,0.053889000000000006,-0.001321395,1825.3229350000001,89.6875,0.0
241,1973,0.04357845,-0.00159756,1825.3229350000001,64.0625,0.0
242,1974,0.03074735,-0.003137705,1825.3229350000001,38.4375,0.0
243,1975,0.0207075,-0.00439056,1825.3229350000001,12.8125,0.0
244,1976,0.011218700000000002,-0.004830404999999999,1825.3229350000001,-12.8125,0.0
245,1977,0.009290525,-0.004851195,1825.3229350000001,-38.4375,0.0
246,1978,0.017213199999999998,-0.004210335,1825.3229350000001,-64.0625,0.0
247,1979,0.02682885,-0.003360935,1825.3229350000001,-89.6875,0.0
248,1980,0.05465765,-0.00235876,1800.21875,89.6875,0.0
249,1981,0.0447216,-0.003614705,1800.21875,64.0625,0.0
250,1982,0.03359055000000001,-0.0034968200000000003,1800.21875,38.4375,0.0
251,1983,0.02133895,-0.00415419,1800.21875,12.8125,0.0
252,1984,0.01132685,-0.004486614999999999,1800.21875,-12.8125,0.0
253,1985,0.00904491,-0.00448249,1800.21875,-38.4375,0.0
254,1986,0.017667699999999998,-0.00449606,1800.21875,-64.0625,0.0
255,1987,0.0279878,-0.003273505,1800.21875,-89.6875,0.0
256,1988,0.0565166,-0.00228711,1775.114565,89.6875,0.0
257,1989,0.0453119,-0.0035508,1775.114565,64.0625,0.0
258,1990,0.0341906,-0.00440091,1775.114565,38.4375,0.0
259,1991,0.0224959,-0.004386340000000001,1775.114565,12.8125,0.0
260,1992,0.011485849999999999,-0.004610605,1775.114565,-12.8125,0.0
261,1993,0.009127975,-0.004682985,1775.114565,-38.4375,0.0
262,1994,0.01784085,-0.004047139999999999,1775.114565,-64.0625,0.0
263,1995,0.02921815,-0.003134545,1775.114565,-89.6875,0.0
264,1996,0.05805585,-0.002507895,1750.0104350000001,89.6875,0.0
265,1997,0.04648225,-0.0037502100000000003,1750.0104350000001,64.0625,0.0
266,1998,0.03458675,-0.004392109999999999,1750.0104350000001,38.4375,0.0
267,1999,0.022975699999999998,-0.004887965,1750.0104350000001,12.8125,0.0
268,2000,0.01210955,-0.0049054400000000005,1750.0104350000001,-12.8125,0.0
269,2001,0.009112095,-0.004621225,1750.0104350000001,-38.4375,0.0
270,2002,0.0184994,-0.004116165,1750.0104350000001,-64.0625,0.0
271,2003,0.030344700000000002,-0.003095085,1750.0104350000001,-89.6875,0.0
272,2004,0.059394749999999996,-0.002514405,1724.90625,89.6875,0.0
273,2005,0.04730425,-0.0037312,1724.90625,64.0625,0.0
274,2006,0.0354463,-0.004640399999999999,1724.90625,38.4375,0.0
275,2007,0.0232732,-0.00508783,1724.90625,12.8125,0.0
276,2008,0.0123334,-0.00513583,1724.90625,-12.8125,0.0
277,2009,0.0096423,-0.00482993,1724.90625,-38.4375,0.0
278,2010,0.0192151,-0.00407661,1724.90625,-64.0625,0.0
279,2011,0.03130065,-0.003095505,1724.90625,-89.6875,0.0
280,2012,0.0609337,-0.0024304749999999996,1699.802065,89.6875,0.0
281,2013,0.04857905,-0.003831125,1699.802065,64.0625,0.0
282,2014,0.036021750000000005,-0.00486077,1699.802065,38.4375,0.0
283,2015,0.02362415,-0.00528146,1699.802065,12.8125,0.0
284,2016,0.01254485,-0.00538946,1699.802065,-12.8125,0.0
285,2017,0.01016649,-0.004967565,1699.802065,-38.4375,0.0
286,2018,0.0201201,-0.0041413100000000005,1699.802065,-64.0625,0.0
287,2019,0.03259465,-0.002955075,1699.802065,-89.6875,0.0
288,2020,0.06233245,-0.0028493750000000003,1674.6979350000001,89.6875,0.0
289,2021,0.04951175,-0.00405224,1674.6979350000001,64.0625,0.0
290,2022,0.036711099999999997,-0.004852515,1674.6979350000001,38.4375,0.0
291,2023,0.0243475,-0.00577894,1674.6979350000001,12.8125,0.0
292,2024,0.0123548,-0.00563483,1674.6979350000001,-12.8125,0.0
293,2025,0.01045675,-0.00488912,1674.6979350000001,-38.4375,0.0
294,2026,0.02109495,-0.00412652,1674.6979350000001,-64.0625,0.0
295,2027,0.03374035,-0.002993905,1674.6979350000001,-89.6875,0.0
296,2028,0.06341215,-0.00271956,1649.59375,89.6875,0.0
297,2029,0.0509186,-0.00414433,1649.59375,64.0625,0.0
298,2030,0.03800805,-0.005976,1649.59375,38.4375,0.0
299,2031,0.023168,-0.005714545,1649.59375,12.8125,0.0
300,2032,0.0122529,-0.00545121,1649.59375,-12.8125,0.0
301,2033,0.0116798,-0.00520333,1649.59375,-38.4375,0.0
302,2034,0.02200155,-0.003728885,1649.59375,-64.0625,0.0
303,2035,0.034822900000000004,-0.0025897949999999998,1649.59375,-89.6875,0.0
304,2036,0.06662095,-0.00441492,1624.489565,89.6875,0.0
305,2037,0.0527136,-0.00703415,1624.489565,64.0625,0.0
306,2038,0.035058599999999995,-0.0059759900000000005,1624.489565,38.4375,0.0
307,2039,0.02242955,-0.00493588,1624.489565,12.8125,0.0
308,2040,0.010256669999999999,-0.00454623,1624.489565,-12.8125,0.0
309,2041,0.009873095,-0.00438673,1624.489565,-38.4375,0.0
310,2042,0.02356355,-0.0046675150000000006,1624.489565,-64.0625,0.0
311,2043,0.03687455,-0.0028376449999999998,1624.489565,-89.6875,0.0
312,2044,0.06709555,-0.011337350000000001,1599.3854350000001,89.6875,0.0
313,2045,0.045970250000000004,-0.007803555,1599.3854350000001,64.0625,0.0
314,2046,0.03217035,-0.003941695,1599.3854350000001,38.4375,0.0
315,2047,0.01914225,-0.002877985,1599.3854350000001,12.8125,0.0
316,2048,0.00752103,-0.002029105,1599.3854350000001,-12.8125,0.0
317,2049,0.0071187049999999995,-0.002163075,1599.3854350000001,-38.4375,0.0
318,2050,0.01947645,-0.003706335,1599.3854350000001,-64.0625,0.0
319,2051,0.03660845,-0.005883105,1599.3854350000001,-89.6875,0.0
320,2052,0.06344280000000001,0.006848785,1574.28125,89.6875,0.0
321,2053,0.04638045,0.00176582,1574.28125,64.0625,0.0
322,2054,0.034948900000000005,-0.00270864,1574.28125,38.4375,0.0
323,2055,0.02325625,-0.004362935,1574.28125,12.8125,0.0
324,2056,0.0137787,-0.00544174,1574.28125,-12.8125,0.0
325,2057,0.00960956,-0.005277185,1574.28125,-38.4375,0.0
326,2058,0.01588335,-0.003659505,1574.28125,-64.0625,0.0
327,2059,0.02692295,-0.00026800035,1574.28125,-89.6875,0.0
328,2060,0.06742965000000001,0.00018852649999999996,1549.177065,89.6875,0.0
329,2061,0.0543745,0.0005870795000000001,1549.177065,64.0625,0.0
330,2062,0.0378151,-0.0011520834999999999,1549.177065,38.4375,0.0
331,2063,0.0251661,-0.00264563,1549.177065,12.8125,0.0
332,2064,0.011769749999999999,-0.0033333549999999997,1549.177065,-12.8125,0.0
333,2065,0.006721349999999999,-0.003330635,1549.177065,-38.4375,0.0
334,2066,0.0187205,-0.0028743700000000002,1549.177065,-64.0625,0.0
335,2067,0.031617900000000004,-0.0023300300000000003,1549.177065,-89.6875,0.0
336,2068,0.06710525,-0.001391945,1524.0729350000001,89.6875,0.0
337,2069,0.0549828,-0.00201498,1524.0729350000001,64.0625,0.0
338,2070,0.0415445,-0.001536085,1524.0729350000001,38.4375,0.0
339,2071,0.025850949999999998,-0.00240016,1524.0729350000001,12.8125,0.0
340,2072,0.012356800000000001,-0.002693295,1524.0729350000001,-12.8125,0.0
341,2073,0.00678824,-0.00292581,1524.0729350000001,-38.4375,0.0
342,2074,0.0187853,-0.0030497750000000002,1524.0729350000001,-64.0625,0.0
343,2075,0.03227645,-0.0023006349999999997,1524.0729350000001,-89.6875,0.0
344,2076,0.06862525,-0.001085925,1498.96875,89.6875,0.0
345,2077,0.05542395,-0.00214958,1498.96875,64.0625,0.0
346,2078,0.04173815,-0.002882495,1498.96875,38.4375,0.0
347,2079,0.027314150000000002,-0.00255213,1498.96875,12.8125,0.0
348,2080,0.01246215,-0.0029984900000000004,1498.96875,-12.8125,0.0
349,2081,0.006425935,-0.002978895,1498.96875,-38.4375,0.0
350,2082,0.0189604,-0.00260089,1498.96875,-64.0625,0.0
351,2083,0.03328595000000001,-0.00176586,1498.96875,-89.6875,0.0
352,2084,0.06960345000000001,-0.001953155,1473.864565,89.6875,0.0
353,2085,0.05607815,-0.00253365,1473.864565,64.0625,0.0
354,2086,0.04204125,-0.00280646,1473.864565,38.4375,0.0
355,2087,0.02783615,-0.00366691,1473.864565,12.8125,0.0
356,2088,0.012539149999999999,-0.00325576,1473.864565,-12.8125,0.0
357,2089,0.00637818,-0.002824055,1473.864565,-38.4375,0.0
358,2090,0.01938065,-0.002334075,1473.864565,-64.0625,0.0
359,2091,0.03399545,-0.0017932299999999998,1473.864565,-89.6875,0.0
360,2092,0.07001755,-0.001668475,1448.7604350000001,89.6875,0.0
361,2093,0.0569476,-0.002711715,1448.7604350000001,64.0625,0.0
362,2094,0.0430196,-0.00425492,1448.7604350000001,38.4375,0.0
363,2095,0.0263853,-0.00363676,1448.7604350000001,12.8125,0.0
364,2096,0.0127721,-0.003359175,1448.7604350000001,-12.8125,0.0
365,2097,0.007289805,-0.0029646,1448.7604350000001,-38.4375,0.0
366,2098,0.01994175,-0.0019001,1448.7604350000001,-64.0625,0.0
367,2099,0.0344243,-0.001200544,1448.7604350000001,-89.6875,0.0
368,2100,0.072807,-0.00360655,1423.65625,89.6875,0.0
369,2101,0.058149950000000006,-0.0057918299999999995,1423.65625,64.0625,0.0
370,2102,0.0394041,-0.004396295,1423.65625,38.4375,0.0
371,2103,0.0257102,-0.0030722099999999997,1423.65625,12.8125,0.0
372,2104,0.0107889,-0.00241888,1423.65625,-12.8125,0.0
373,2105,0.0056169900000000005,-0.002265905,1423.65625,-38.4375,0.0
374,2106,0.020949250000000003,-0.00247591,1423.65625,-64.0625,0.0
375,2107,0.03570355,-0.0013555870000000001,1423.65625,-89.6875,0.0
376,2108,0.0720343,-0.0111063,1398.552065,89.6875,0.0
377,2109,0.05040725,-0.006852535,1398.552065,64.0625,0.0
378,2110,0.03628035,-0.00239655,1398.552065,38.4375,0.0
379,2111,0.022443499999999998,-0.0009840835,1398.552065,12.8125,0.0
380,2112,0.009768805,9.36905e-05,1398.552065,-12.8125,0.0
381,2113,0.003757135,9.56065e-05,1398.552065,-38.4375,0.0
382,2114,0.01700205,-0.001474625,1398.552065,-64.0625,0.0
383,2115,0.0339717,-0.00400906,1398.552065,-89.6875,0.0
384,2116,0.00130779,0.0006666225,2602.666625,-89.6875,0.0
385,2117,0.001486135,0.0008551749999999999,2602.666625,-64.0625,0.0
386,2118,0.00149504,0.0008618475,2602.666625,-38.4375,0.0
387,2119,0.00147324,0.00085037,2602.666625,-12.8125,0.0
388,2120,0.00147324,0.00085037,2602.666625,12.8125,0.0
389,2121,0.00149504,0.0008618475,2602.666625,38.4375,0.0
390,2122,0.001486135,0.0008551749999999999,2602.666625,64.0625,0.0
391,2123,0.00130779,0.0006666225,2602.666625,89.6875,0.0
392,2124,0.00114087,0.000645879,2626.0,-89.6875,0.0
393,2125,0.001618635,0.00092961,2626.0,-64.0625,0.0
394,2126,0.001504065,0.0008668440000000001,2626.0,-38.4375,0.0
395,2127,0.001497015,0.0008640875,2626.0,-12.8125,0.0
396,2128,0.001497015,0.0008640875,2626.0,12.8125,0.0
397,2129,0.001504065,0.0008668440000000001,2626.0,38.4375,0.0
398,2130,0.001618635,0.00092961,2626.0,64.0625,0.0
399,2131,0.00114087,0.000645879,2626.0,89.6875,0.0
400,2132,0.001093295,0.0006185425,2649.333375,-89.6875,0.0
401,2133,0.001471075,0.000841475,2649.333375,-64.0625,0.0
402,2134,0.0015326950000000002,0.000883008,2649.333375,-38.4375,0.0
403,2135,0.00151818,0.0008763620000000001,2649.333375,-12.8125,0.0
404,2136,0.00151818,0.0008763620000000001,2649.333375,12.8125,0.0
405,2137,0.0015326950000000002,0.000883008,2649.333375,38.4375,0.0
406,2138,0.001471075,0.000841475,2649.333375,64.0625,0.0
407,2139,0.001093295,0.0006185425,2649.333375,89.6875,0.0
408,3835,0.054382650000000005,0.030481099999999997,1198.5,89.6875,0.0
409,3836,0.07716889999999998,0.042537649999999996,1198.5,64.0625,0.0
410,3837,0.0838326,0.046954199999999995,1198.5,38.4375,0.0
411,3838,0.08851075,0.05032185,1198.5,12.8125,0.0
412,3839,0.0886039,0.0509129,1198.5,-12.8125,0.0
413,3840,0.08466325,0.048735,1198.5,-38.4375,0.0
414,3841,0.07996165,0.0459464,1198.5,-64.0625,0.0
415,3842,0.0642692,0.03488805,1198.5,-89.6875,0.0
416,3843,0.05683535,0.0298262,1173.5,89.6875,0.0
417,3844,0.0822127,0.04465015,1173.5,64.0625,0.0
418,3845,0.08910489999999999,0.04908815,1173.5,38.4375,0.0
419,3846,0.09050265,0.051416050000000005,1173.5,12.8125,0.0
420,3847,0.09032725,0.05195344999999999,1173.5,-12.8125,0.0
421,3848,0.0875109,0.050367800000000004,1173.5,-38.4375,0.0
422,3849,0.08177015000000001,0.0470026,1173.5,-64.0625,0.0
423,3850,0.0552098,0.03179365,1173.5,-89.6875,0.0
424,3851,0.06559305,0.0292983,1148.5,89.6875,0.0
425,3852,0.08345085,0.043632699999999996,1148.5,64.0625,0.0
426,3853,0.0927141,0.0509847,1148.5,38.4375,0.0
427,3854,0.0949074,0.05369305,1148.5,12.8125,0.0
428,3855,0.09314990000000001,0.053715299999999994,1148.5,-12.8125,0.0
429,3856,0.0899481,0.05182185,1148.5,-38.4375,0.0
430,3857,0.07772705,0.044300400000000004,1148.5,-64.0625,0.0
431,3858,0.056177349999999994,0.03026385,1148.5,-89.6875,0.0
432,3859,0.077346,0.028977549999999998,1123.5,89.6875,0.0
433,3860,0.0883187,0.04361835,1123.5,64.0625,0.0
434,3861,0.09663255,0.052672399999999994,1123.5,38.4375,0.0
435,3862,0.09433695,0.05365915,1123.5,12.8125,0.0
436,3863,0.09321379999999999,0.05365295,1123.5,-12.8125,0.0
437,3864,0.09064585,0.0521128,1123.5,-38.4375,0.0
438,3865,0.07877780000000001,0.043596750000000004,1123.5,-64.0625,0.0
439,3866,0.0630022,0.029641699999999997,1123.5,-89.6875,0.0
440,3867,0.09708920000000001,0.032489300000000006,1098.5,89.6875,0.0
441,3868,0.10087399999999999,0.0490163,1098.5,64.0625,0.0
442,3869,0.0926229,0.05077280000000001,1098.5,38.4375,0.0
443,3870,0.0907847,0.0512925,1098.5,12.8125,0.0
444,3871,0.0883303,0.050887550000000004,1098.5,-12.8125,0.0
445,3872,0.08611175,0.0495307,1098.5,-38.4375,0.0
446,3873,0.08728069999999999,0.04714085,1098.5,-64.0625,0.0
447,3874,0.07759675,0.0314758,1098.5,-89.6875,0.0
448,3875,0.121699,0.043156349999999996,1073.5,89.6875,0.0
449,3876,0.09698290000000001,0.04827255,1073.5,64.0625,0.0
450,3877,0.08619175,0.046188099999999996,1073.5,38.4375,0.0
451,3878,0.0835436,0.047159549999999995,1073.5,12.8125,0.0
452,3879,0.08084155000000001,0.046480150000000005,1073.5,-12.8125,0.0
453,3880,0.07815659999999999,0.044641200000000006,1073.5,-38.4375,0.0
454,3881,0.0823637,0.04483365,1073.5,-64.0625,0.0
455,3882,0.09829175000000001,0.0386505,1073.5,-89.6875,0.0
456,3883,0.0906467,0.019020199999999998,1048.5,89.6875,0.0
457,3884,0.07390994999999999,0.019020199999999998,1048.5,64.0625,0.0
458,3885,0.058114849999999996,0.019020199999999998,1048.5,38.4375,0.0
459,3886,0.0442809,0.019020199999999998,1048.5,12.8125,0.0
460,3887,0.0348292,0.019020199999999998,1048.5,-12.8125,0.0
461,3888,0.03367695,0.019020199999999998,1048.5,-38.4375,0.0
462,3889,0.0415208,0.019020199999999998,1048.5,-64.0625,0.0
463,3890,0.0546134,0.019020199999999998,1048.5,-89.6875,0.0
464,3891,0.1063797,0.045631,1373.5,89.6875,0.0
465,3892,0.1001618,0.0523307,1373.5,64.0625,0.0
466,3893,0.0898574,0.047424549999999996,1373.5,38.4375,0.0
467,3894,0.08655684999999999,0.0479426,1373.5,12.8125,0.0
468,3895,0.08438345,0.047902799999999995,1373.5,-12.8125,0.0
469,3896,0.08243629999999999,0.047177300000000005,1373.5,-38.4375,0.0
470,3897,0.0900582,0.051457750000000003,1373.5,-64.0625,0.0
471,3898,0.0830034,0.041799550000000005,1373.5,-89.6875,0.0
472,3899,0.0738168,0.03441855,1348.5,89.6875,0.0
473,3900,0.1039137,0.052610199999999996,1348.5,64.0625,0.0
474,3901,0.0940556,0.05062610000000001,1348.5,38.4375,0.0
475,3902,0.09316995,0.05186475,1348.5,12.8125,0.0
476,3903,0.09108084999999999,0.0519147,1348.5,-12.8125,0.0
477,3904,0.08864425000000001,0.05084355,1348.5,-38.4375,0.0
478,3905,0.09493945000000001,0.05358980000000001,1348.5,-64.0625,0.0
479,3906,0.0669396,0.03786505,1348.5,-89.6875,0.0
480,3907,0.09520209999999998,0.0421508,1323.5,89.6875,0.0
481,3908,0.09304520000000001,0.0519029,1323.5,64.0625,0.0
482,3909,0.09158595,0.0521507,1323.5,38.4375,0.0
483,3910,0.0944484,0.05421355,1323.5,12.8125,0.0
484,3911,0.09348775000000001,0.05379495,1323.5,-12.8125,0.0
485,3912,0.0891148,0.051344,1323.5,-38.4375,0.0
486,3913,0.0874056,0.05001155,1323.5,-64.0625,0.0
487,3914,0.08351795000000001,0.039594950000000004,1323.5,-89.6875,0.0
488,3915,0.0735885,0.0359779,1298.5,89.6875,0.0
489,3916,0.0949844,0.05310525,1298.5,64.0625,0.0
490,3917,0.09702440000000001,0.0556683,1298.5,38.4375,0.0
491,3918,0.0987822,0.05681045,1298.5,12.8125,0.0
492,3919,0.09837715,0.05671475000000001,1298.5,-12.8125,0.0
493,3920,0.09551690000000002,0.05504075,1298.5,-38.4375,0.0
494,3921,0.09104675000000001,0.05216605,1298.5,-64.0625,0.0
495,3922,0.06712504999999999,0.035594749999999994,1298.5,-89.6875,0.0
496,3923,0.058183700000000005,0.0322678,1273.5,89.6875,0.0
497,3924,0.0867987,0.04944835,1273.5,64.0625,0.0
498,3925,0.10187014999999999,0.0584537,1273.5,38.4375,0.0
499,3926,0.10014065000000001,0.0576498,1273.5,12.8125,0.0
500,3927,0.09999495,0.05766665000000001,1273.5,-12.8125,0.0
501,3928,0.1013248,0.058493149999999994,1273.5,-38.4375,0.0
502,3929,0.08606150000000001,0.04967925,1273.5,-64.0625,0.0
503,3930,0.05653425,0.032535999999999995,1273.5,-89.6875,0.0
504,3931,0.0611743,0.03511915,1248.5,89.6875,0.0
505,3932,0.08958875,0.051548,1248.5,64.0625,0.0
506,3933,0.0959681,0.054849400000000006,1248.5,38.4375,0.0
507,3934,0.09907425,0.0570068,1248.5,12.8125,0.0
508,3935,0.09907640000000001,0.057110350000000004,1248.5,-12.8125,0.0
509,3936,0.09641075,0.05556885,1248.5,-38.4375,0.0
510,3937,0.09154015,0.0526001,1248.5,-64.0625,0.0
511,3938,0.06486885,0.03604355000000001,1248.5,-89.6875,0.0
512,3939,0.07210965,0.0375117,1223.5,89.6875,0.0
513,3940,0.08637565,0.0494691,1223.5,64.0625,0.0
514,3941,0.09065945,0.052051599999999996,1223.5,38.4375,0.0
515,3942,0.09553455,0.05486025,1223.5,12.8125,0.0
516,3943,0.0960731,0.055293850000000005,1223.5,-12.8125,0.0
517,3944,0.09184365,0.0528478,1223.5,-38.4375,0.0
518,3945,0.0894046,0.05126805,1223.5,-64.0625,0.0
519,3946,0.07970909999999999,0.039741599999999995,1223.5,-89.6875,0.0
520,5375,0.001940865,-0.0007358445,159.714287,89.6875,0.0
521,5376,0.001604595,-0.0008472110000000001,159.714287,64.0625,0.0
522,5377,0.00147148,-0.0008238200000000001,159.714287,38.4375,0.0
523,5378,0.001482985,-0.000854369,159.714287,12.8125,0.0
524,5379,0.001482985,-0.000854369,159.714287,-12.8125,0.0
525,5380,0.00147148,-0.0008238200000000001,159.714287,-38.4375,0.0
526,5381,0.001604595,-0.0008472110000000001,159.714287,-64.0625,0.0
527,5382,0.001940865,-0.0007358445,159.714287,-89.6875,0.0
528,5383,0.00155478,-0.000587325,135.142857,89.6875,0.0
529,5384,0.001673145,-0.000868541,135.142857,64.0625,0.0
530,5385,0.0016071000000000002,-0.0009120465,135.142857,38.4375,0.0
531,5386,0.001615225,-0.0009298625,135.142857,12.8125,0.0
532,5387,0.001615225,-0.0009298625,135.142857,-12.8125,0.0
533,5388,0.0016071000000000002,-0.0009120465,135.142857,-38.4375,0.0
534,5389,0.001673145,-0.000868541,135.142857,-64.0625,0.0
535,5390,0.00155478,-0.000587325,135.142857,-89.6875,0.0
536,5391,0.00122868,-0.0005262674999999999,110.5714266,89.6875,0.0
537,5392,0.0014908249999999999,-0.0007932695,110.5714266,64.0625,0.0
538,5393,0.0016834150000000002,-0.0009533359999999999,110.5714266,38.4375,0.0
539,5394,0.00170408,-0.000983025,110.5714266,12.8125,0.0
540,5395,0.00170408,-0.000983025,110.5714266,-12.8125,0.0
541,5396,0.0016834150000000002,-0.0009533359999999999,110.5714266,-38.4375,0.0
542,5397,0.0014908249999999999,-0.0007932695,110.5714266,-64.0625,0.0
543,5398,0.00122868,-0.0005262674999999999,110.5714266,-89.6875,0.0
544,5399,0.00109025,-0.0005460065000000001,86.0,89.6875,0.0
545,5400,0.001415,-0.000784612,86.0,64.0625,0.0
546,5401,0.00163285,-0.000932238,86.0,38.4375,0.0
547,5402,0.001746345,-0.0010069509999999999,86.0,12.8125,0.0
548,5403,0.001746345,-0.0010069509999999999,86.0,-12.8125,0.0
549,5404,0.00163285,-0.000932238,86.0,-38.4375,0.0
550,5405,0.001415,-0.000784612,86.0,-64.0625,0.0
551,5406,0.00109025,-0.0005460065000000001,86.0,-89.6875,0.0
552,5407,0.000949001,-0.0005273459999999999,61.428571700000006,89.6875,0.0
553,5408,0.0013973850000000001,-0.0007969295,61.428571700000006,64.0625,0.0
554,5409,0.001639315,-0.000941208,61.428571700000006,38.4375,0.0
555,5410,0.001694365,-0.0009768745,61.428571700000006,12.8125,0.0
556,5411,0.001694365,-0.0009768745,61.428571700000006,-12.8125,0.0
557,5412,0.001639315,-0.000941208,61.428571700000006,-38.4375,0.0
558,5413,0.0013973850000000001,-0.0007969295,61.428571700000006,-64.0625,0.0
559,5414,0.000949001,-0.0005273459999999999,61.428571700000006,-89.6875,0.0
560,5415,0.0009966365,-0.000573243,36.857142450000005,89.6875,0.0
561,5416,0.00145128,-0.0008355629999999999,36.857142450000005,64.0625,0.0
562,5417,0.0015756849999999998,-0.0009037674999999999,36.857142450000005,38.4375,0.0
563,5418,0.001621375,-0.0009358335,36.857142450000005,12.8125,0.0
564,5419,0.001621375,-0.0009358335,36.857142450000005,-12.8125,0.0
565,5420,0.0015756849999999998,-0.0009037674999999999,36.857142450000005,-38.4375,0.0
566,5421,0.00145128,-0.0008355629999999999,36.857142450000005,-64.0625,0.0
567,5422,0.0009966365,-0.000573243,36.857142450000005,-89.6875,0.0
568,5423,0.001163505,-0.0006190214999999999,12.28571415,89.6875,0.0
569,5424,0.001415665,-0.0008159655,12.28571415,64.0625,0.0
570,5425,0.00148201,-0.0008549035,12.28571415,38.4375,0.0
571,5426,0.00156743,-0.0009046065,12.28571415,12.8125,0.0
572,5427,0.00156743,-0.0009046065,12.28571415,-12.8125,0.0
573,5428,0.00148201,-0.0008549035,12.28571415,-38.4375,0.0
574,5429,0.001415665,-0.0008159655,12.28571415,-64.0625,0.0
575,5430,0.001163505,-0.0006190214999999999,12.28571415,-89.6875,0.0
576,6229,0.107825,-0.022313850000000003,1023.6571349999999,89.6875,0.0
577,6230,0.07347795000000001,-0.01844535,1023.6571349999999,64.0625,0.0
578,6231,0.052061149999999994,-0.012888750000000001,1023.6571349999999,38.4375,0.0
579,6232,0.034029699999999996,-0.0116313,1023.6571349999999,12.8125,0.0
580,6233,0.0205565,-0.01037925,1023.6571349999999,-12.8125,0.0
581,6234,0.019912,-0.01016812,1023.6571349999999,-38.4375,0.0
582,6235,0.035413150000000004,-0.01231475,1023.6571349999999,-64.0625,0.0
583,6236,0.06264715,-0.0140937,1023.6571349999999,-89.6875,0.0
584,6237,0.10274749999999999,-0.01152445,998.9714355,89.6875,0.0
585,6238,0.08277875,-0.01756905,998.9714355,64.0625,0.0
586,6239,0.0567778,-0.0163563,998.9714355,38.4375,0.0
587,6240,0.040365599999999995,-0.0150319,998.9714355,12.8125,0.0
588,6241,0.026736249999999996,-0.01437855,998.9714355,-12.8125,0.0
589,6242,0.025713850000000003,-0.01395875,998.9714355,-38.4375,0.0
590,6243,0.041460250000000004,-0.013879899999999999,998.9714355,-64.0625,0.0
591,6244,0.058971449999999995,-0.009079364999999999,998.9714355,-89.6875,0.0
592,6245,0.0948904,-0.00857527,974.285736,89.6875,0.0
593,6246,0.07783419999999999,-0.01288105,974.285736,64.0625,0.0
594,6247,0.0612067,-0.01675335,974.285736,38.4375,0.0
595,6248,0.041955900000000004,-0.016533449999999998,974.285736,12.8125,0.0
596,6249,0.0305007,-0.01616905,974.285736,-12.8125,0.0
597,6250,0.0287351,-0.01542695,974.285736,-38.4375,0.0
598,6251,0.037430200000000004,-0.01214125,974.285736,-64.0625,0.0
599,6252,0.05325265,-0.00826861,974.285736,-89.6875,0.0
600,6253,0.09107645,-0.008862885000000001,949.6000060000001,89.6875,0.0
601,6254,0.07432095,-0.01254585,949.6000060000001,64.0625,0.0
602,6255,0.058093500000000006,-0.015017599999999999,949.6000060000001,38.4375,0.0
603,6256,0.044022500000000006,-0.01698765,949.6000060000001,12.8125,0.0
604,6257,0.031053450000000003,-0.01662655,949.6000060000001,-12.8125,0.0
605,6258,0.027188499999999997,-0.015016099999999998,949.6000060000001,-38.4375,0.0
606,6259,0.035229899999999995,-0.01248805,949.6000060000001,-64.0625,0.0
607,6260,0.0497629,-0.009010655,949.6000060000001,-89.6875,0.0
608,6261,0.0866976,-0.00806139,924.914276,89.6875,0.0
609,6262,0.0713991,-0.01228145,924.914276,64.0625,0.0
610,6263,0.0566021,-0.0150391,924.914276,38.4375,0.0
611,6264,0.042362250000000004,-0.01617785,924.914276,12.8125,0.0
612,6265,0.0313873,-0.0164587,924.914276,-12.8125,0.0
613,6266,0.02672335,-0.01501725,924.914276,-38.4375,0.0
614,6267,0.03308865,-0.012659050000000002,924.914276,-64.0625,0.0
615,6268,0.046069650000000004,-0.008798475,924.914276,-89.6875,0.0
616,6269,0.08232980000000001,-0.008380105,900.2285764999999,89.6875,0.0
617,6270,0.06822955,-0.01200615,900.2285764999999,64.0625,0.0
618,6271,0.05465015,-0.014542900000000001,900.2285764999999,38.4375,0.0
619,6272,0.041657,-0.01601105,900.2285764999999,12.8125,0.0
620,6273,0.030706199999999996,-0.01586285,900.2285764999999,-12.8125,0.0
621,6274,0.026379899999999998,-0.015000099999999999,900.2285764999999,-38.4375,0.0
622,6275,0.030786900000000002,-0.0125037,900.2285764999999,-64.0625,0.0
623,6276,0.042473750000000005,-0.009186455,900.2285764999999,-89.6875,0.0
624,6277,0.07805295000000001,-0.007915205,875.5428769999999,89.6875,0.0
625,6278,0.06526014999999999,-0.01197135,875.5428769999999,64.0625,0.0
626,6279,0.0528357,-0.014364350000000001,875.5428769999999,38.4375,0.0
627,6280,0.0404005,-0.01512425,875.5428769999999,12.8125,0.0
628,6281,0.0301371,-0.015607099999999999,875.5428769999999,-12.8125,0.0
629,6282,0.025766249999999997,-0.01476295,875.5428769999999,-38.4375,0.0
630,6283,0.029434799999999997,-0.0128103,875.5428769999999,-64.0625,0.0
631,6284,0.03902635,-0.009169765,875.5428769999999,-89.6875,0.0
632,6285,0.07302625,-0.008061055,850.8571469999999,89.6875,0.0
633,6286,0.06276375,-0.011908450000000001,850.8571469999999,64.0625,0.0
634,6287,0.0510121,-0.013272550000000001,850.8571469999999,38.4375,0.0
635,6288,0.03835935,-0.0145467,850.8571469999999,12.8125,0.0
636,6289,0.02919965,-0.0149799,850.8571469999999,-12.8125,0.0
637,6290,0.02606,-0.01490575,850.8571469999999,-38.4375,0.0
638,6291,0.0284919,-0.013281600000000001,850.8571469999999,-64.0625,0.0
639,6292,0.035399900000000005,-0.009495670000000001,850.8571469999999,-89.6875,0.0
640,6293,0.06891025,-0.00683261,826.171417,89.6875,0.0
641,6294,0.0592692,-0.009747595000000001,826.171417,64.0625,0.0
642,6295,0.0467234,-0.012349449999999998,826.171417,38.4375,0.0
643,6296,0.037091650000000004,-0.0143835,826.171417,12.8125,0.0
644,6297,0.029034749999999998,-0.01512985,826.171417,-12.8125,0.0
645,6298,0.02598975,-0.014902,826.171417,-38.4375,0.0
646,6299,0.028414049999999996,-0.01381515,826.171417,-64.0625,0.0
647,6300,0.03164805,-0.009944205000000001,826.171417,-89.6875,0.0
648,6301,0.058229500000000003,-0.0005702182499999999,801.4857175,89.6875,0.0
649,6302,0.050124550000000004,-0.008159985,801.4857175,64.0625,0.0
650,6303,0.04363595,-0.01331045,801.4857175,38.4375,0.0
651,6304,0.03649885,-0.01559445,801.4857175,12.8125,0.0
652,6305,0.0316275,-0.0168618,801.4857175,-12.8125,0.0
653,6306,0.028230699999999997,-0.01623105,801.4857175,-38.4375,0.0
654,6307,0.027783250000000002,-0.01442005,801.4857175,-64.0625,0.0
655,6308,0.02355755,-0.00881898,801.4857175,-89.6875,0.0
656,6309,0.07523255,-0.01698185,776.8000180000001,89.6875,0.0
657,6310,0.051512050000000004,-0.014977350000000002,776.8000180000001,64.0625,0.0
658,6311,0.03714625,-0.01137695,776.8000180000001,38.4375,0.0
659,6312,0.02605015,-0.01069125,776.8000180000001,12.8125,0.0
660,6313,0.018374050000000003,-0.009859139999999999,776.8000180000001,-12.8125,0.0
661,6314,0.0177244,-0.009596485,776.8000180000001,-38.4375,0.0
662,6315,0.026773149999999996,-0.01091185,776.8000180000001,-64.0625,0.0
663,6316,0.0448738,-0.011506450000000001,776.8000180000001,-89.6875,0.0
664,6317,0.07012065,-0.0095326,752.1142880000001,89.6875,0.0
665,6318,0.05738435,-0.01446245,752.1142880000001,64.0625,0.0
666,6319,0.040490399999999996,-0.01385425,752.1142880000001,38.4375,0.0
667,6320,0.03059965,-0.0130792,752.1142880000001,12.8125,0.0
668,6321,0.0228963,-0.0126591,752.1142880000001,-12.8125,0.0
669,6322,0.0219771,-0.01228175,752.1142880000001,-38.4375,0.0
670,6323,0.0307698,-0.012066150000000001,752.1142880000001,-64.0625,0.0
671,6324,0.04085115,-0.00801362,752.1142880000001,-89.6875,0.0
672,6325,0.06364015,-0.00741873,727.4285580000001,89.6875,0.0
673,6326,0.05313485,-0.0111478,727.4285580000001,64.0625,0.0
674,6327,0.0433789,-0.0142421,727.4285580000001,38.4375,0.0
675,6328,0.031913,-0.014221049999999999,727.4285580000001,12.8125,0.0
676,6329,0.0256052,-0.01398965,727.4285580000001,-12.8125,0.0
677,6330,0.0241722,-0.013409049999999999,727.4285580000001,-38.4375,0.0
678,6331,0.0275219,-0.01076015,727.4285580000001,-64.0625,0.0
679,6332,0.036065349999999996,-0.007402285,727.4285580000001,-89.6875,0.0
680,6333,0.0601703,-0.00760164,702.7428585,89.6875,0.0
681,6334,0.0502161,-0.01088695,702.7428585,64.0625,0.0
682,6335,0.04090275,-0.01304655,702.7428585,38.4375,0.0
683,6336,0.033335699999999996,-0.01463255,702.7428585,12.8125,0.0
684,6337,0.026201600000000002,-0.0144121,702.7428585,-12.8125,0.0
685,6338,0.02319055,-0.013111750000000002,702.7428585,-38.4375,0.0
686,6339,0.02589835,-0.01097865,702.7428585,-64.0625,0.0
687,6340,0.03313455,-0.00793388,702.7428585,-89.6875,0.0
688,6341,0.05634255,-0.00704293,678.057159,89.6875,0.0
689,6342,0.0476943,-0.010682150000000001,678.057159,64.0625,0.0
690,6343,0.0396915,-0.0130844,678.057159,38.4375,0.0
691,6344,0.032166349999999996,-0.014121799999999999,678.057159,12.8125,0.0
692,6345,0.026424549999999998,-0.014331199999999999,678.057159,-12.8125,0.0
693,6346,0.02298445,-0.013142400000000002,678.057159,-38.4375,0.0
694,6347,0.02435735,-0.01107975,678.057159,-64.0625,0.0
695,6348,0.0300751,-0.0077915599999999995,678.057159,-89.6875,0.0
696,6349,0.05254020000000001,-0.00724112,653.371429,89.6875,0.0
697,6350,0.0450106,-0.0105073,653.371429,64.0625,0.0
698,6351,0.03811175,-0.012764,653.371429,38.4375,0.0
699,6352,0.03164875,-0.014026,653.371429,12.8125,0.0
700,6353,0.025984649999999998,-0.013949350000000001,653.371429,-12.8125,0.0
701,6354,0.022838449999999996,-0.01314135,653.371429,-38.4375,0.0
702,6355,0.022755450000000003,-0.010984899999999999,653.371429,-64.0625,0.0
703,6356,0.0271604,-0.008035919999999998,653.371429,-89.6875,0.0
704,6357,0.04884175,-0.0069858049999999994,628.685699,89.6875,0.0
705,6358,0.042545200000000005,-0.0105091,628.685699,64.0625,0.0
706,6359,0.03664845,-0.012629350000000001,628.685699,38.4375,0.0
707,6360,0.03063545,-0.01344855,628.685699,12.8125,0.0
708,6361,0.02568555,-0.0137908,628.685699,-12.8125,0.0
709,6362,0.0224704,-0.01296125,628.685699,-38.4375,0.0
710,6363,0.0219264,-0.011198550000000002,628.685699,-64.0625,0.0
711,6364,0.02445905,-0.008055900000000001,628.685699,-89.6875,0.0
712,6365,0.0446318,-0.0070615,604.0,89.6875,0.0
713,6366,0.040383350000000005,-0.010496,604.0,64.0625,0.0
714,6367,0.0351427,-0.01200255,604.0,38.4375,0.0
715,6368,0.02924685,-0.012960800000000001,604.0,12.8125,0.0
716,6369,0.024819,-0.01326105,604.0,-12.8125,0.0
717,6370,0.022815000000000002,-0.013142500000000001,604.0,-38.4375,0.0
718,6371,0.02147895,-0.011517,604.0,-64.0625,0.0
719,6372,0.0217133,-0.00820592,604.0,-89.6875,0.0
720,6373,0.04078375,-0.006482115,579.314301,89.6875,0.0
721,6374,0.0376098,-0.00940769,579.314301,64.0625,0.0
722,6375,0.032374299999999995,-0.011244999999999998,579.314301,38.4375,0.0
723,6376,0.02809305,-0.01264485,579.314301,12.8125,0.0
724,6377,0.024497249999999998,-0.0131579,579.314301,-12.8125,0.0
725,6378,0.0225518,-0.01297255,579.314301,-38.4375,0.0
726,6379,0.02212075,-0.012182450000000001,579.314301,-64.0625,0.0
727,6380,0.0193036,-0.00866757,579.314301,-89.6875,0.0
728,6381,0.03239985,-0.0030325400000000002,554.6285710000001,89.6875,0.0
729,6382,0.03199565,-0.008285859999999999,554.6285710000001,64.0625,0.0
730,6383,0.030225349999999998,-0.0115269,554.6285710000001,38.4375,0.0
731,6384,0.02765455,-0.013122100000000001,554.6285710000001,12.8125,0.0
732,6385,0.02568845,-0.01396955,554.6285710000001,-12.8125,0.0
733,6386,0.0235446,-0.0135073,554.6285710000001,-38.4375,0.0
734,6387,0.0222904,-0.0124808,554.6285710000001,-64.0625,0.0
735,6388,0.0161228,-0.00853647,554.6285710000001,-89.6875,0.0
736,6389,0.0457201,-0.011940800000000001,529.942841,89.6875,0.0
737,6390,0.03182255,-0.011562649999999999,529.942841,64.0625,0.0
738,6391,0.02393565,-0.00972845,529.942841,38.4375,0.0
739,6392,0.019082300000000003,-0.009586805,529.942841,12.8125,0.0
740,6393,0.0162172,-0.009199295,529.942841,-12.8125,0.0
741,6394,0.0161821,-0.0089625,529.942841,-38.4375,0.0
742,6395,0.0206022,-0.009680915,529.942841,-64.0625,0.0
743,6396,0.030667600000000003,-0.009351545,529.942841,-89.6875,0.0
744,6397,0.0408468,-0.00756513,505.25712599999997,89.6875,0.0
745,6398,0.0346859,-0.01139905,505.25712599999997,64.0625,0.0
746,6399,0.026095549999999995,-0.0113564,505.25712599999997,38.4375,0.0
747,6400,0.021908700000000003,-0.01109175,505.25712599999997,12.8125,0.0
748,6401,0.0191365,-0.010935299999999998,505.25712599999997,-12.8125,0.0
749,6402,0.018904699999999997,-0.0106739,505.25712599999997,-38.4375,0.0
750,6403,0.02289125,-0.01040915,505.25712599999997,-64.0625,0.0
751,6404,0.026560300000000002,-0.007073205,505.25712599999997,-89.6875,0.0
752,6405,0.03576255,-0.006223795000000001,480.5714264999999,89.6875,0.0
753,6406,0.031216999999999998,-0.00938357,480.5714264999999,64.0625,0.0
754,6407,0.02762975,-0.011721849999999999,480.5714264999999,38.4375,0.0
755,6408,0.02298215,-0.011928600000000001,480.5714264999999,12.8125,0.0
756,6409,0.020846950000000003,-0.0118427,480.5714264999999,-12.8125,0.0
757,6410,0.020401799999999998,-0.011466,480.5714264999999,-38.4375,0.0
758,6411,0.02043845,-0.009443295,480.5714264999999,-64.0625,0.0
759,6412,0.0227426,-0.00662026,480.5714264999999,-89.6875,0.0
760,6413,0.03276275,-0.006343195,455.88571199999996,89.6875,0.0
761,6414,0.0289635,-0.00916725,455.88571199999996,64.0625,0.0
762,6415,0.025895849999999998,-0.011061999999999999,455.88571199999996,38.4375,0.0
763,6416,0.0238224,-0.0122635,455.88571199999996,12.8125,0.0
764,6417,0.0214645,-0.0122352,455.88571199999996,-12.8125,0.0
765,6418,0.019761800000000003,-0.0112553,455.88571199999996,-38.4375,0.0
766,6419,0.01934815,-0.009530425,455.88571199999996,-64.0625,0.0
767,6420,0.0205964,-0.006999780000000001,455.88571199999996,-89.6875,0.0
768,6421,0.02954855,-0.0059886950000000005,431.199997,89.6875,0.0
769,6422,0.02702565,-0.00906911,431.199997,64.0625,0.0
770,6423,0.02501935,-0.01105415,431.199997,38.4375,0.0
771,6424,0.02324185,-0.012081749999999999,431.199997,12.8125,0.0
772,6425,0.0215488,-0.01220475,431.199997,-12.8125,0.0
773,6426,0.0196739,-0.01129695,431.199997,-38.4375,0.0
774,6427,0.01845815,-0.009611675,431.199997,-64.0625,0.0
775,6428,0.0183126,-0.0069003,431.199997,-89.6875,0.0
776,6429,0.02655465,-0.0061104950000000005,406.514282,89.6875,0.0
777,6430,0.024892499999999998,-0.0089086,406.514282,64.0625,0.0
778,6431,0.024085250000000002,-0.0110031,406.514282,38.4375,0.0
779,6432,0.022917800000000002,-0.0120058,406.514282,12.8125,0.0
780,6433,0.02141635,-0.012084500000000001,406.514282,-12.8125,0.0
781,6434,0.019617549999999997,-0.011316350000000001,406.514282,-38.4375,0.0
782,6435,0.017448850000000002,-0.00948278,406.514282,-64.0625,0.0
783,6436,0.0164813,-0.007084685,406.514282,-89.6875,0.0
784,6437,0.02354605,-0.006011905,381.82856749999996,89.6875,0.0
785,6438,0.02328215,-0.00902794,381.82856749999996,64.0625,0.0
786,6439,0.022989549999999997,-0.010862,381.82856749999996,38.4375,0.0
787,6440,0.0226034,-0.01192375,381.82856749999996,12.8125,0.0
788,6441,0.021353550000000002,-0.01200825,381.82856749999996,-12.8125,0.0
789,6442,0.01936415,-0.011173800000000001,381.82856749999996,-38.4375,0.0
790,6443,0.0170877,-0.00960982,381.82856749999996,-64.0625,0.0
791,6444,0.014644300000000002,-0.006963055,381.82856749999996,-89.6875,0.0
792,6445,0.0207245,-0.006086465,357.142853,89.6875,0.0
793,6446,0.021499450000000003,-0.008948225,357.142853,64.0625,0.0
794,6447,0.02231425,-0.0108571,357.142853,38.4375,0.0
795,6448,0.02198165,-0.0116939,357.142853,12.8125,0.0
796,6449,0.0211591,-0.01185305,357.142853,-12.8125,0.0
797,6450,0.019450349999999998,-0.0111914,357.142853,-38.4375,0.0
798,6451,0.016628650000000002,-0.00953363,357.142853,-64.0625,0.0
799,6452,0.0135001,-0.00709178,357.142853,-89.6875,0.0
800,6453,0.0176984,-0.006023975000000001,332.457138,89.6875,0.0
801,6454,0.02028165,-0.009089315,332.457138,64.0625,0.0
802,6455,0.021408999999999997,-0.01065935,332.457138,38.4375,0.0
803,6456,0.021251449999999998,-0.011303549999999999,332.457138,12.8125,0.0
804,6457,0.02050015,-0.0115041,332.457138,-12.8125,0.0
805,6458,0.01966205,-0.011267049999999999,332.457138,-38.4375,0.0
806,6459,0.01700175,-0.009805375,332.457138,-64.0625,0.0
807,6460,0.012348650000000003,-0.0069397899999999995,332.457138,-89.6875,0.0
808,6461,0.015063899999999998,-0.00614989,307.771423,89.6875,0.0
809,6462,0.0190891,-0.009032295,307.771423,64.0625,0.0
810,6463,0.02019745,-0.01012275,307.771423,38.4375,0.0
811,6464,0.0201924,-0.010867650000000001,307.771423,12.8125,0.0
812,6465,0.0198797,-0.011108550000000002,307.771423,-12.8125,0.0
813,6466,0.019241499999999998,-0.01101315,307.771423,-38.4375,0.0
814,6467,0.0181985,-0.01043345,307.771423,-64.0625,0.0
815,6468,0.0130028,-0.00741203,307.771423,-89.6875,0.0
816,6469,0.011178325,-0.005477045,283.0857085,89.6875,0.0
817,6470,0.0172086,-0.008436039999999999,283.0857085,64.0625,0.0
818,6471,0.0187347,-0.00974028,283.0857085,38.4375,0.0
819,6472,0.019594050000000002,-0.01064015,283.0857085,12.8125,0.0
820,6473,0.019730150000000002,-0.01106865,283.0857085,-12.8125,0.0
821,6474,0.0188486,-0.0107096,283.0857085,-38.4375,0.0
822,6475,0.01838265,-0.0104728,283.0857085,-64.0625,0.0
823,6476,0.01547055,-0.008053379999999999,283.0857085,-89.6875,0.0
824,6477,0.01684035,-0.00722514,258.40000150000003,89.6875,0.0
825,6478,0.01574695,-0.00863264,258.40000150000003,64.0625,0.0
826,6479,0.01514555,-0.00850365,258.40000150000003,38.4375,0.0
827,6480,0.015287350000000002,-0.0087034,258.40000150000003,12.8125,0.0
828,6481,0.0151172,-0.008644220000000001,258.40000150000003,-12.8125,0.0
829,6482,0.014549,-0.008331845000000001,258.40000150000003,-38.4375,0.0
830,6483,0.014505750000000001,-0.008230814999999999,258.40000150000003,-64.0625,0.0
831,6484,0.0144744,-0.00667834,258.40000150000003,-89.6875,0.0
832,6485,0.012812649999999998,-0.00593978,233.71428650000001,89.6875,0.0
833,6486,0.016262099999999998,-0.00890464,233.71428650000001,64.0625,0.0
834,6487,0.0160809,-0.009143655,233.71428650000001,38.4375,0.0
835,6488,0.0156655,-0.008949704999999999,233.71428650000001,12.8125,0.0
836,6489,0.01548815,-0.008929915,233.71428650000001,-12.8125,0.0
837,6490,0.0157601,-0.00908859,233.71428650000001,-38.4375,0.0
838,6491,0.01531675,-0.008733445,233.71428650000001,-64.0625,0.0
839,6492,0.01118295,-0.00579419,233.71428650000001,-89.6875,0.0
840,6493,0.010431260000000001,-0.005651055,209.028572,89.6875,0.0
841,6494,0.01520755,-0.008436495,209.028572,64.0625,0.0
842,6495,0.01629,-0.009150740000000001,209.028572,38.4375,0.0
843,6496,0.015764800000000002,-0.009040855,209.028572,12.8125,0.0
844,6497,0.0157507,-0.009069445,209.028572,-12.8125,0.0
845,6498,0.015999,-0.00920942,209.028572,-38.4375,0.0
846,6499,0.015076349999999999,-0.00864844,209.028572,-64.0625,0.0
847,6500,0.010075825,-0.005774945,209.028572,-89.6875,0.0
848,6501,0.01043255,-0.00586646,184.34285749999998,89.6875,0.0
849,6502,0.0144417,-0.008053295,184.34285749999998,64.0625,0.0
850,6503,0.015263700000000002,-0.008599205,184.34285749999998,38.4375,0.0
851,6504,0.0160873,-0.009153544999999999,184.34285749999998,12.8125,0.0
852,6505,0.01604945,-0.00919678,184.34285749999998,-12.8125,0.0
853,6506,0.0153353,-0.008788165,184.34285749999998,-38.4375,0.0
854,6507,0.014698449999999998,-0.008395135000000001,184.34285749999998,-64.0625,0.0
855,6508,0.0117233,-0.006326985,184.34285749999998,-89.6875,0.0
