,Element,S.Mises.mean,S.S12.mean,intpointx,intpointy,intpointz
0,1,0.00117233,-0.0006764920000000001,2649.333375,-13.2644758,100.75370025000001
1,2,0.00119431,-0.000689238,2626.0,-13.2644758,100.75370025000001
2,3,0.001167605,-0.0006731105,2602.666625,-13.2644758,100.75370025000001
3,4,0.00107427,-0.0006191175,2649.333375,-38.8894758,93.88750075
4,5,0.00109894,-0.0006319865,2626.0,-38.8894758,93.88750075
5,6,0.0010751250000000001,-0.000613699,2602.666625,-38.8894758,93.88750075
6,7,0.0008830795,-0.0005065905,2649.333375,-61.86422350000001,80.623024
7,8,0.0009070635,-0.0005155419999999999,2626.0,-61.86422350000001,80.623024
8,9,0.0009109455,-0.0005047885000000001,2602.666625,-61.86422350000001,80.623024
9,10,0.0006330655,-0.0003586905,2649.333375,-80.623024,61.8642235
10,11,0.000653132,-0.00035834349999999996,2626.0,-80.623024,61.8642235
11,12,0.0006964454999999999,-0.00035768150000000005,2602.666625,-80.623024,61.8642235
12,13,0.00031924899999999997,-0.0001412865,2649.333375,-93.88750075,38.8894758
13,14,0.0004466125,-0.0002181045,2626.0,-93.88750075,38.8894758
14,15,0.00041920200000000003,-0.00012409299999999998,2602.666625,-93.88750075,38.8894758
15,16,0.0003921395,0.00016301850000000002,2649.333375,-100.75370025000001,13.2644758
16,17,0.000571864,0.000300572,2626.0,-100.75370025000001,13.2644758
17,18,0.0008266975,0.0002171315,2602.666625,-100.75370025000001,13.2644758
18,19,0.01876995,0.010794100000000001,2578.447875,-13.2644758,100.75370025000001
19,20,0.0189347,0.0109223,2553.34375,-13.2644758,100.75370025000001
20,21,0.0188554,0.010885249999999999,2528.239625,-13.2644758,100.75370025000001
21,22,0.0189131,0.01088595,2503.135375,-13.2644758,100.75370025000001
22,23,0.01891425,0.01085005,2478.03125,-13.2644758,100.75370025000001
23,24,0.0190873,0.010824549999999999,2452.927125,-13.2644758,100.75370025000001
24,25,0.019499449999999998,0.010948649999999999,2427.822875,-13.2644758,100.75370025000001
25,26,0.01905905,0.01059105,2402.71875,-13.2644758,100.75370025000001
26,27,0.016637700000000002,0.00955156,2377.614625,-13.2644758,100.75370025000001
27,28,0.01657665,0.009439429999999999,2352.510375,-13.2644758,100.75370025000001
28,29,0.016854099999999997,0.009508575,2327.40625,-13.2644758,100.75370025000001
29,30,0.017017650000000002,0.009465935,2302.302125,-13.2644758,100.75370025000001
30,31,0.017201849999999998,0.00942329,2277.197875,-13.2644758,100.75370025000001
31,32,0.017641,0.009457920000000002,2252.09375,-13.2644758,100.75370025000001
32,33,0.01783685,0.009385785,2226.989625,-13.2644758,100.75370025000001
33,34,0.01857025,0.009370245,2201.885375,-13.2644758,100.75370025000001
34,35,0.019468899999999997,0.009610094999999999,2176.78125,-13.2644758,100.75370025000001
35,36,0.0186908,0.008999075,2151.677125,-13.2644758,100.75370025000001
36,37,0.015641600000000002,0.008260535,2126.572875,-13.2644758,100.75370025000001
37,38,0.015611499999999999,0.007829125,2101.46875,-13.2644758,100.75370025000001
38,39,0.01634825,0.00804225,2076.364625,-13.2644758,100.75370025000001
39,40,0.01667065,0.00797351,2051.260435,-13.2644758,100.75370025000001
40,41,0.017195750000000003,0.007940454999999999,2026.15625,-13.2644758,100.75370025000001
41,42,0.017772499999999997,0.007950200000000001,2001.0520649999999,-13.2644758,100.75370025000001
42,43,0.01869875,0.008007245,1975.947935,-13.2644758,100.75370025000001
43,44,0.01914535,0.007945145,1950.84375,-13.2644758,100.75370025000001
44,45,0.02048935,0.007896505,1925.7395649999999,-13.2644758,100.75370025000001
45,46,0.0217902,0.008260179999999999,1900.635435,-13.2644758,100.75370025000001
46,47,0.02064025,0.007404255,1875.53125,-13.2644758,100.75370025000001
47,48,0.016991100000000002,0.006970355,1850.4270649999999,-13.2644758,100.75370025000001
48,49,0.01763025,0.006267705,1825.322935,-13.2644758,100.75370025000001
49,50,0.01865875,0.00660236,1800.21875,-13.2644758,100.75370025000001
50,51,0.0190242,0.00650911,1775.1145649999999,-13.2644758,100.75370025000001
51,52,0.0199018,0.006463535,1750.010435,-13.2644758,100.75370025000001
52,53,0.020674150000000002,0.006484745,1724.90625,-13.2644758,100.75370025000001
53,54,0.021961849999999998,0.0065489,1699.8020649999999,-13.2644758,100.75370025000001
54,55,0.02256545,0.00647317,1674.697935,-13.2644758,100.75370025000001
55,56,0.024445499999999995,0.00640494,1649.59375,-13.2644758,100.75370025000001
56,57,0.025994999999999997,0.00684552,1624.4895649999999,-13.2644758,100.75370025000001
57,58,0.024531749999999998,0.005831485,1599.385435,-13.2644758,100.75370025000001
58,59,0.02086615,0.005794779999999999,1574.28125,-13.2644758,100.75370025000001
59,60,0.02260505,0.004964255,1549.1770649999999,-13.2644758,100.75370025000001
60,61,0.02366365,0.005280525,1524.072935,-13.2644758,100.75370025000001
61,62,0.02434265,0.005193995,1498.96875,-13.2644758,100.75370025000001
62,63,0.0251081,0.004896835,1473.8645649999999,-13.2644758,100.75370025000001
63,64,0.0271427,0.004810285,1448.760435,-13.2644758,100.75370025000001
64,65,0.028847449999999997,0.00518472,1423.65625,-13.2644758,100.75370025000001
65,66,0.0273589,0.004186135,1398.5520649999999,-13.2644758,100.75370025000001
66,67,0.0197147,0.01137245,2578.447875,-38.8894758,93.88750075
67,68,0.02012225,0.01160805,2553.34375,-38.8894758,93.88750075
68,69,0.0199507,0.01151555,2528.239625,-38.8894758,93.88750075
69,70,0.01995415,0.011518599999999999,2503.135375,-38.8894758,93.88750075
70,71,0.019954100000000002,0.011520099999999998,2478.03125,-38.8894758,93.88750075
71,72,0.02006785,0.0115852,2452.927125,-38.8894758,93.88750075
72,73,0.02038035,0.011758250000000001,2427.822875,-38.8894758,93.88750075
73,74,0.019562749999999997,0.0112833,2402.71875,-38.8894758,93.88750075
74,75,0.0174869,0.01007425,2377.614625,-38.8894758,93.88750075
75,76,0.01740355,0.010024795,2352.510375,-38.8894758,93.88750075
76,77,0.017436850000000004,0.01004845,2327.40625,-38.8894758,93.88750075
77,78,0.01749925,0.010084699999999999,2302.302125,-38.8894758,93.88750075
78,79,0.0175569,0.0101221,2277.197875,-38.8894758,93.88750075
79,80,0.01779525,0.0102597,2252.09375,-38.8894758,93.88750075
80,81,0.01776065,0.01024235,2226.989625,-38.8894758,93.88750075
81,82,0.0179065,0.010325049999999999,2201.885375,-38.8894758,93.88750075
82,83,0.0184071,0.0105805,2176.78125,-38.8894758,93.88750075
83,84,0.0171305,0.009830525,2151.677125,-38.8894758,93.88750075
84,85,0.015234150000000002,0.00878822,2126.572875,-38.8894758,93.88750075
85,86,0.01463315,0.008442635,2101.46875,-38.8894758,93.88750075
86,87,0.014869400000000001,0.008572765,2076.364625,-38.8894758,93.88750075
87,88,0.014999100000000001,0.00863153,2051.260435,-38.8894758,93.88750075
88,89,0.0152067,0.00872162,2026.15625,-38.8894758,93.88750075
89,90,0.015388949999999998,0.008810934999999999,2001.0520649999999,-38.8894758,93.88750075
90,91,0.015709149999999998,0.00897028,1975.947935,-38.8894758,93.88750075
91,92,0.0157125,0.008948115,1950.84375,-38.8894758,93.88750075
92,93,0.0159689,0.009063155,1925.7395649999999,-38.8894758,93.88750075
93,94,0.01676545,0.009376885,1900.635435,-38.8894758,93.88750075
94,95,0.01519995,0.008424874999999998,1875.53125,-38.8894758,93.88750075
95,96,0.0131742,0.007554985,1850.4270649999999,-38.8894758,93.88750075
96,97,0.01221945,0.006950885,1825.322935,-38.8894758,93.88750075
97,98,0.0126056,0.007160079999999999,1800.21875,-38.8894758,93.88750075
98,99,0.0129375,0.0072638649999999996,1775.1145649999999,-38.8894758,93.88750075
99,100,0.0132702,0.00734395,1750.010435,-38.8894758,93.88750075
100,101,0.0137046,0.00748677,1724.90625,-38.8894758,93.88750075
101,102,0.01424095,0.00767217,1699.8020649999999,-38.8894758,93.88750075
102,103,0.01447325,0.007675070000000001,1674.697935,-38.8894758,93.88750075
103,104,0.014999050000000002,0.0078051200000000005,1649.59375,-38.8894758,93.88750075
104,105,0.01631765,0.008168189999999999,1624.4895649999999,-38.8894758,93.88750075
105,106,0.01471285,0.007086075,1599.385435,-38.8894758,93.88750075
106,107,0.0124493,0.00652294,1574.28125,-38.8894758,93.88750075
107,108,0.0117237,0.005721865,1549.1770649999999,-38.8894758,93.88750075
108,109,0.0121578,0.005994,1524.072935,-38.8894758,93.88750075
109,110,0.012918800000000001,0.006236755,1498.96875,-38.8894758,93.88750075
110,111,0.013440200000000001,0.006257759999999999,1473.8645649999999,-38.8894758,93.88750075
111,112,0.014665300000000001,0.00650886,1448.760435,-38.8894758,93.88750075
112,113,0.016560250000000002,0.00688696,1423.65625,-38.8894758,93.88750075
113,114,0.015371799999999998,0.00581488,1398.5520649999999,-38.8894758,93.88750075
114,115,0.0194585,0.0112324,2578.447875,-61.86422350000001,80.623024
115,116,0.01956555,0.0112918,2553.34375,-61.86422350000001,80.623024
116,117,0.0196493,0.01131955,2528.239625,-61.86422350000001,80.623024
117,118,0.019850599999999996,0.011419,2503.135375,-61.86422350000001,80.623024
118,119,0.019921050000000003,0.01143365,2478.03125,-61.86422350000001,80.623024
119,120,0.019903450000000003,0.01138745,2452.927125,-61.86422350000001,80.623024
120,121,0.02036725,0.01156985,2427.822875,-61.86422350000001,80.623024
121,122,0.019781149999999997,0.011224149999999999,2402.71875,-61.86422350000001,80.623024
122,123,0.01790145,0.01005578,2377.614625,-61.86422350000001,80.623024
123,124,0.0176772,0.009807469999999999,2352.510375,-61.86422350000001,80.623024
124,125,0.01820245,0.01005222,2327.40625,-61.86422350000001,80.623024
125,126,0.0183701,0.01015304,2302.302125,-61.86422350000001,80.623024
126,127,0.01857105,0.0102305,2277.197875,-61.86422350000001,80.623024
127,128,0.01870995,0.010276549999999999,2252.09375,-61.86422350000001,80.623024
128,129,0.0187984,0.010256999999999999,2226.989625,-61.86422350000001,80.623024
129,130,0.018942149999999998,0.0102183,2201.885375,-61.86422350000001,80.623024
130,131,0.0199516,0.0106342,2176.78125,-61.86422350000001,80.623024
131,132,0.01865005,0.00994443,2151.677125,-61.86422350000001,80.623024
132,133,0.0175383,0.009038075,2126.572875,-61.86422350000001,80.623024
133,134,0.01709315,0.008458090000000001,2101.46875,-61.86422350000001,80.623024
134,135,0.01765805,0.008879135,2076.364625,-61.86422350000001,80.623024
135,136,0.017686999999999998,0.009062125,2051.260435,-61.86422350000001,80.623024
136,137,0.0175564,0.009042419999999999,2026.15625,-61.86422350000001,80.623024
137,138,0.01767035,0.00912603,2001.0520649999999,-61.86422350000001,80.623024
138,139,0.01769625,0.00913774,1975.947935,-61.86422350000001,80.623024
139,140,0.0178057,0.009104234999999999,1950.84375,-61.86422350000001,80.623024
140,141,0.01804925,0.009105100000000001,1925.7395649999999,-61.86422350000001,80.623024
141,142,0.019331,0.009709585,1900.635435,-61.86422350000001,80.623024
142,143,0.017423,0.008724585,1875.53125,-61.86422350000001,80.623024
143,144,0.0169839,0.00807365,1850.4270649999999,-61.86422350000001,80.623024
144,145,0.0163009,0.007186645,1825.322935,-61.86422350000001,80.623024
145,146,0.016753999999999998,0.007805875,1800.21875,-61.86422350000001,80.623024
146,147,0.0164734,0.007985889999999999,1775.1145649999999,-61.86422350000001,80.623024
147,148,0.016116449999999997,0.007967985,1750.010435,-61.86422350000001,80.623024
148,149,0.01607065,0.008049515,1724.90625,-61.86422350000001,80.623024
149,150,0.0159899,0.008093514999999999,1699.8020649999999,-61.86422350000001,80.623024
150,151,0.01600855,0.008045825,1674.697935,-61.86422350000001,80.623024
151,152,0.0162186,0.00809814,1649.59375,-61.86422350000001,80.623024
152,153,0.01752945,0.00883896,1624.4895649999999,-61.86422350000001,80.623024
153,154,0.01521915,0.00762786,1599.385435,-61.86422350000001,80.623024
154,155,0.01469875,0.00710869,1574.28125,-61.86422350000001,80.623024
155,156,0.01364015,0.006059780000000001,1549.1770649999999,-61.86422350000001,80.623024
156,157,0.01435385,0.0068407699999999995,1524.072935,-61.86422350000001,80.623024
157,158,0.0142006,0.007096135,1498.96875,-61.86422350000001,80.623024
158,159,0.0140809,0.007183815,1473.8645649999999,-61.86422350000001,80.623024
159,160,0.014140550000000002,0.0073848,1448.760435,-61.86422350000001,80.623024
160,161,0.015223999999999998,0.00821608,1423.65625,-61.86422350000001,80.623024
161,162,0.0127162,0.006948895,1398.5520649999999,-61.86422350000001,80.623024
162,163,0.0174053,0.01001824,2578.447875,-80.623024,61.8642235
163,164,0.017993799999999997,0.01038085,2553.34375,-80.623024,61.8642235
164,165,0.01804145,0.010399249999999999,2528.239625,-80.623024,61.8642235
165,166,0.018171850000000003,0.0103827,2503.135375,-80.623024,61.8642235
166,167,0.0182246,0.010280999999999998,2478.03125,-80.623024,61.8642235
167,168,0.018742799999999997,0.0102743,2452.927125,-80.623024,61.8642235
168,169,0.01928125,0.01029675,2427.822875,-80.623024,61.8642235
169,170,0.01889175,0.009723019999999999,2402.71875,-80.623024,61.8642235
170,171,0.018194250000000002,0.00968364,2377.614625,-80.623024,61.8642235
171,172,0.0186207,0.00970945,2352.510375,-80.623024,61.8642235
172,173,0.01873665,0.009839645000000001,2327.40625,-80.623024,61.8642235
173,174,0.018626450000000003,0.009677525,2302.302125,-80.623024,61.8642235
174,175,0.0187932,0.00942099,2277.197875,-80.623024,61.8642235
175,176,0.019477349999999997,0.00942007,2252.09375,-80.623024,61.8642235
176,177,0.01963945,0.0091024,2226.989625,-80.623024,61.8642235
177,178,0.0210269,0.00909592,2201.885375,-80.623024,61.8642235
178,179,0.0222539,0.009206,2176.78125,-80.623024,61.8642235
179,180,0.021985650000000002,0.0084377,2151.677125,-80.623024,61.8642235
180,181,0.0223979,0.00948421,2126.572875,-80.623024,61.8642235
181,182,0.022571799999999996,0.009238675,2101.46875,-80.623024,61.8642235
182,183,0.021864849999999998,0.009450535,2076.364625,-80.623024,61.8642235
183,184,0.02108715,0.00916435,2051.260435,-80.623024,61.8642235
184,185,0.021131900000000002,0.008893125,2026.15625,-80.623024,61.8642235
185,186,0.021159449999999996,0.00858507,2001.0520649999999,-80.623024,61.8642235
186,187,0.021871500000000002,0.00846734,1975.947935,-80.623024,61.8642235
187,188,0.0219951,0.008082955,1950.84375,-80.623024,61.8642235
188,189,0.023670999999999998,0.007962714999999999,1925.7395649999999,-80.623024,61.8642235
189,190,0.0254295,0.00819874,1900.635435,-80.623024,61.8642235
190,191,0.025121050000000002,0.007233665,1875.53125,-80.623024,61.8642235
191,192,0.02624475,0.009230135,1850.4270649999999,-80.623024,61.8642235
192,193,0.02596755,0.008734615000000001,1825.322935,-80.623024,61.8642235
193,194,0.02445045,0.009001539999999999,1800.21875,-80.623024,61.8642235
194,195,0.0229266,0.00867941,1775.1145649999999,-80.623024,61.8642235
195,196,0.0226026,0.008279345,1750.010435,-80.623024,61.8642235
196,197,0.022259,0.007938984999999999,1724.90625,-80.623024,61.8642235
197,198,0.0226535,0.00772076,1699.8020649999999,-80.623024,61.8642235
198,199,0.02254135,0.007260635,1674.697935,-80.623024,61.8642235
199,200,0.024168799999999997,0.007052485,1649.59375,-80.623024,61.8642235
200,201,0.02616575,0.0073767,1624.4895649999999,-80.623024,61.8642235
201,202,0.025856,0.006284915,1599.385435,-80.623024,61.8642235
202,203,0.02608415,0.008541415,1574.28125,-80.623024,61.8642235
203,204,0.025371699999999997,0.00789651,1549.1770649999999,-80.623024,61.8642235
204,205,0.023638149999999997,0.008074,1524.072935,-80.623024,61.8642235
205,206,0.022210849999999997,0.007943645,1498.96875,-80.623024,61.8642235
206,207,0.02132665,0.00719263,1473.8645649999999,-80.623024,61.8642235
207,208,0.02223285,0.00707372,1448.760435,-80.623024,61.8642235
208,209,0.0236478,0.007307355,1423.65625,-80.623024,61.8642235
209,210,0.023214699999999998,0.006243605,1398.5520649999999,-80.623024,61.8642235
210,211,0.01582405,0.009002199999999998,2578.447875,-93.88750075,38.8894758
211,212,0.015719399999999998,0.008966865000000001,2553.34375,-93.88750075,38.8894758
212,213,0.01441865,0.008292225,2528.239625,-93.88750075,38.8894758
213,214,0.014362549999999998,0.008044405000000001,2503.135375,-93.88750075,38.8894758
214,215,0.01490665,0.007967965,2478.03125,-93.88750075,38.8894758
215,216,0.01619525,0.00777545,2452.927125,-93.88750075,38.8894758
216,217,0.018671899999999998,0.008131030000000001,2427.822875,-93.88750075,38.8894758
217,218,0.018148499999999998,0.007664645,2402.71875,-93.88750075,38.8894758
218,219,0.0198807,0.01036305,2377.614625,-93.88750075,38.8894758
219,220,0.019122,0.009809035,2352.510375,-93.88750075,38.8894758
220,221,0.017977299999999998,0.008804909999999999,2327.40625,-93.88750075,38.8894758
221,222,0.01811225,0.008198415,2302.302125,-93.88750075,38.8894758
222,223,0.01876515,0.007829835,2277.197875,-93.88750075,38.8894758
223,224,0.0198716,0.00734479,2252.09375,-93.88750075,38.8894758
224,225,0.0211195,0.00724823,2226.989625,-93.88750075,38.8894758
225,226,0.022956650000000002,0.006699455,2201.885375,-93.88750075,38.8894758
226,227,0.02616055,0.006653485,2176.78125,-93.88750075,38.8894758
227,228,0.024979050000000003,0.00569354,2151.677125,-93.88750075,38.8894758
228,229,0.02843965,0.0118409,2126.572875,-93.88750075,38.8894758
229,230,0.02714025,0.01069695,2101.46875,-93.88750075,38.8894758
230,231,0.0250627,0.009476575000000001,2076.364625,-93.88750075,38.8894758
231,232,0.02450565,0.00848632,2051.260435,-93.88750075,38.8894758
232,233,0.02516385,0.007965690000000001,2026.15625,-93.88750075,38.8894758
233,234,0.025432250000000003,0.00737634,2001.0520649999999,-93.88750075,38.8894758
234,235,0.026765999999999998,0.00682963,1975.947935,-93.88750075,38.8894758
235,236,0.027505850000000002,0.00652302,1950.84375,-93.88750075,38.8894758
236,237,0.029305149999999995,0.00567944,1925.7395649999999,-93.88750075,38.8894758
237,238,0.032862,0.0052292599999999995,1900.635435,-93.88750075,38.8894758
238,239,0.0314947,0.003814455,1875.53125,-93.88750075,38.8894758
239,240,0.0358589,0.01291015,1850.4270649999999,-93.88750075,38.8894758
240,241,0.03423705,0.0113176,1825.322935,-93.88750075,38.8894758
241,242,0.0310389,0.009927615,1800.21875,-93.88750075,38.8894758
242,243,0.029708599999999998,0.00864343,1775.1145649999999,-93.88750075,38.8894758
243,244,0.030058500000000002,0.0080222,1750.010435,-93.88750075,38.8894758
244,245,0.0296678,0.00724146,1724.90625,-93.88750075,38.8894758
245,246,0.03065255,0.006537475,1699.8020649999999,-93.88750075,38.8894758
246,247,0.03085675,0.00605597,1674.697935,-93.88750075,38.8894758
247,248,0.03229975,0.0049527749999999995,1649.59375,-93.88750075,38.8894758
248,249,0.035939750000000006,0.00418376,1624.4895649999999,-93.88750075,38.8894758
249,250,0.03467505,0.002423525,1599.385435,-93.88750075,38.8894758
250,251,0.0381383,0.0127163,1574.28125,-93.88750075,38.8894758
251,252,0.0364779,0.010848449999999999,1549.1770649999999,-93.88750075,38.8894758
252,253,0.03260665,0.00942113,1524.072935,-93.88750075,38.8894758
253,254,0.03119945,0.007752285,1498.96875,-93.88750075,38.8894758
254,255,0.0309913,0.007087619999999999,1473.8645649999999,-93.88750075,38.8894758
255,256,0.030860949999999998,0.005494675,1448.760435,-93.88750075,38.8894758
256,257,0.0340322,0.00450039,1423.65625,-93.88750075,38.8894758
257,258,0.03274455,0.0025227749999999997,1398.5520649999999,-93.88750075,38.8894758
258,259,0.01324145,0.006127645,2578.447875,-100.75370025000001,13.2644758
259,260,0.01040505,0.00550723,2553.34375,-100.75370025000001,13.2644758
260,261,0.008940005000000001,0.00512659,2528.239625,-100.75370025000001,13.2644758
261,262,0.009165699999999999,0.004791055,2503.135375,-100.75370025000001,13.2644758
262,263,0.0105588,0.004567224999999999,2478.03125,-100.75370025000001,13.2644758
263,264,0.013377149999999999,0.00456849,2452.927125,-100.75370025000001,13.2644758
264,265,0.0162948,0.0038845750000000004,2427.822875,-100.75370025000001,13.2644758
265,266,0.019883900000000003,0.003777095,2402.71875,-100.75370025000001,13.2644758
266,267,0.01683085,0.009342699999999999,2377.614625,-100.75370025000001,13.2644758
267,268,0.016163499999999997,0.008150915,2352.510375,-100.75370025000001,13.2644758
268,269,0.01562765,0.006565925,2327.40625,-100.75370025000001,13.2644758
269,270,0.01684575,0.00597459,2302.302125,-100.75370025000001,13.2644758
270,271,0.01829415,0.0054252599999999995,2277.197875,-100.75370025000001,13.2644758
271,272,0.02021995,0.00491825,2252.09375,-100.75370025000001,13.2644758
272,273,0.022006249999999998,0.00445329,2226.989625,-100.75370025000001,13.2644758
273,274,0.02471775,0.00414562,2201.885375,-100.75370025000001,13.2644758
274,275,0.027263700000000002,0.00239092,2176.78125,-100.75370025000001,13.2644758
275,276,0.030084350000000003,0.0013799455000000002,2151.677125,-100.75370025000001,13.2644758
276,277,0.02784645,0.01248475,2126.572875,-100.75370025000001,13.2644758
277,278,0.0272383,0.01076355,2101.46875,-100.75370025000001,13.2644758
278,279,0.025922399999999998,0.008007054999999999,2076.364625,-100.75370025000001,13.2644758
279,280,0.026728650000000003,0.007228015,2051.260435,-100.75370025000001,13.2644758
280,281,0.027623800000000004,0.00627671,2026.15625,-100.75370025000001,13.2644758
281,282,0.0289406,0.0056722249999999995,2001.0520649999999,-100.75370025000001,13.2644758
282,283,0.03030865,0.004951225,1975.947935,-100.75370025000001,13.2644758
283,284,0.031685599999999994,0.00421356,1950.84375,-100.75370025000001,13.2644758
284,285,0.033797100000000004,0.003642605,1925.7395649999999,-100.75370025000001,13.2644758
285,286,0.03592165,0.0009271855,1900.635435,-100.75370025000001,13.2644758
286,287,0.03816055,-0.000825737,1875.53125,-100.75370025000001,13.2644758
287,288,0.03798765,0.014953550000000001,1850.4270649999999,-100.75370025000001,13.2644758
288,289,0.03676045,0.012790349999999999,1825.322935,-100.75370025000001,13.2644758
289,290,0.03445395,0.009154184999999999,1800.21875,-100.75370025000001,13.2644758
290,291,0.03459925,0.00818705,1775.1145649999999,-100.75370025000001,13.2644758
291,292,0.03490504999999999,0.0069691300000000005,1750.010435,-100.75370025000001,13.2644758
292,293,0.03561665,0.00614038,1724.90625,-100.75370025000001,13.2644758
293,294,0.0363944,0.005225635,1699.8020649999999,-100.75370025000001,13.2644758
294,295,0.0371806,0.00422441,1674.697935,-100.75370025000001,13.2644758
295,296,0.038706950000000004,0.003416175,1649.59375,-100.75370025000001,13.2644758
296,297,0.04026575,4.868599999999999e-05,1624.4895649999999,-100.75370025000001,13.2644758
297,298,0.0419744,-0.002256135,1599.385435,-100.75370025000001,13.2644758
298,299,0.04308675000000001,0.015576700000000002,1574.28125,-100.75370025000001,13.2644758
299,300,0.041266399999999995,0.012979850000000001,1549.1770649999999,-100.75370025000001,13.2644758
300,301,0.038617399999999996,0.008973215,1524.072935,-100.75370025000001,13.2644758
301,302,0.038339750000000006,0.0076471,1498.96875,-100.75370025000001,13.2644758
302,303,0.038017800000000004,0.005938195,1473.8645649999999,-100.75370025000001,13.2644758
303,304,0.0386881,0.00468049,1448.760435,-100.75370025000001,13.2644758
304,305,0.03896465,0.0010343485,1423.65625,-100.75370025000001,13.2644758
305,306,0.03990155,-0.001763495,1398.5520649999999,-100.75370025000001,13.2644758
306,307,0.060791,-0.0320675,1373.5,-13.2644758,100.75370025000001
307,308,0.0647824,-0.036077,1348.5,-13.2644758,100.75370025000001
308,309,0.0682406,-0.0367621,1323.5,-13.2644758,100.75370025000001
309,310,0.06812335,-0.0377542,1298.5,-13.2644758,100.75370025000001
310,311,0.065614,-0.03749985,1273.5,-13.2644758,100.75370025000001
311,312,0.06517685000000001,-0.0375832,1248.5,-13.2644758,100.75370025000001
312,313,0.06490125,-0.03711605,1223.5,-13.2644758,100.75370025000001
313,314,0.0692039,-0.0394878,1373.5,-38.8894758,93.88750075
314,315,0.0754079,-0.0433715,1348.5,-38.8894758,93.88750075
315,316,0.07675225,-0.04356395,1323.5,-38.8894758,93.88750075
316,317,0.07847155,-0.04483925,1298.5,-38.8894758,93.88750075
317,318,0.0777698,-0.044774900000000006,1273.5,-38.8894758,93.88750075
318,319,0.0774807,-0.044719300000000003,1248.5,-38.8894758,93.88750075
319,320,0.0760451,-0.043826050000000005,1223.5,-38.8894758,93.88750075
320,321,0.0747618,-0.043120450000000005,1373.5,-61.86422350000001,80.623024
321,322,0.0810453,-0.046706700000000004,1348.5,-61.86422350000001,80.623024
322,323,0.08068420000000001,-0.04653375,1323.5,-61.86422350000001,80.623024
323,324,0.0827436,-0.0477577,1298.5,-61.86422350000001,80.623024
324,325,0.08056345000000001,-0.0464919,1273.5,-61.86422350000001,80.623024
325,326,0.08218690000000001,-0.047418249999999995,1248.5,-61.86422350000001,80.623024
326,327,0.0809676,-0.04671715,1223.5,-61.86422350000001,80.623024
327,328,0.07338485,-0.04118065,1373.5,-80.623024,61.8642235
328,329,0.07757285,-0.04423825,1348.5,-80.623024,61.8642235
329,330,0.075099,-0.042883899999999996,1323.5,-80.623024,61.8642235
330,331,0.0771612,-0.0444368,1298.5,-80.623024,61.8642235
331,332,0.07926495,-0.0457625,1273.5,-80.623024,61.8642235
332,333,0.0768185,-0.044270500000000004,1248.5,-80.623024,61.8642235
333,334,0.07533925,-0.0431338,1223.5,-80.623024,61.8642235
334,335,0.07158785000000001,-0.03914175,1373.5,-93.88750075,38.8894758
335,336,0.0757861,-0.041513499999999995,1348.5,-93.88750075,38.8894758
336,337,0.0636647,-0.03403105000000001,1323.5,-93.88750075,38.8894758
337,338,0.0667228,-0.03664375,1298.5,-93.88750075,38.8894758
338,339,0.05814559999999999,-0.0335284,1273.5,-93.88750075,38.8894758
339,340,0.0661426,-0.03725415,1248.5,-93.88750075,38.8894758
340,341,0.06383355,-0.035394300000000004,1223.5,-93.88750075,38.8894758
341,342,0.057600349999999995,-0.019544,1373.5,-100.75370025000001,13.2644758
342,343,0.0372508,-0.02017105,1348.5,-100.75370025000001,13.2644758
343,344,0.060356450000000006,-0.015181199999999999,1323.5,-100.75370025000001,13.2644758
344,345,0.03909435,-0.01369895,1298.5,-100.75370025000001,13.2644758
345,346,0.0267326,-0.015159450000000001,1273.5,-100.75370025000001,13.2644758
346,347,0.0338172,-0.0149142,1248.5,-100.75370025000001,13.2644758
347,348,0.05418219999999999,-0.01747155,1223.5,-100.75370025000001,13.2644758
348,349,0.05807265,-0.032919000000000004,1198.5,-13.2644758,100.75370025000001
349,350,0.057960349999999994,-0.0333889,1173.5,-13.2644758,100.75370025000001
350,351,0.057919899999999996,-0.033170450000000004,1148.5,-13.2644758,100.75370025000001
351,352,0.0608021,-0.0329891,1123.5,-13.2644758,100.75370025000001
352,353,0.0649943,-0.033610600000000004,1098.5,-13.2644758,100.75370025000001
353,354,0.06539385,-0.03177675,1073.5,-13.2644758,100.75370025000001
354,355,0.04921045,-0.0241539,1048.5,-13.2644758,100.75370025000001
355,356,0.0715519,-0.040763900000000006,1198.5,-38.8894758,93.88750075
356,357,0.07267495,-0.041718200000000004,1173.5,-38.8894758,93.88750075
357,358,0.07154805,-0.0412858,1148.5,-38.8894758,93.88750075
358,359,0.0718675,-0.0413992,1123.5,-38.8894758,93.88750075
359,360,0.0741076,-0.04223015,1098.5,-38.8894758,93.88750075
360,361,0.07119075,-0.040098999999999996,1073.5,-38.8894758,93.88750075
361,362,0.054482550000000005,-0.03122325,1048.5,-38.8894758,93.88750075
362,363,0.07822555,-0.044657199999999994,1198.5,-61.86422350000001,80.623024
363,364,0.07892615,-0.04511725,1173.5,-61.86422350000001,80.623024
364,365,0.0787787,-0.045031,1148.5,-61.86422350000001,80.623024
365,366,0.0787967,-0.04524665,1123.5,-61.86422350000001,80.623024
366,367,0.08086525,-0.04644585,1098.5,-61.86422350000001,80.623024
367,368,0.07738275,-0.0445835,1073.5,-61.86422350000001,80.623024
368,369,0.0638455,-0.036231,1048.5,-61.86422350000001,80.623024
369,370,0.07373375,-0.042213,1198.5,-80.623024,61.8642235
370,371,0.0784648,-0.0444562,1173.5,-80.623024,61.8642235
371,372,0.07828885000000001,-0.044323549999999996,1148.5,-80.623024,61.8642235
372,373,0.07928775,-0.04419685,1123.5,-80.623024,61.8642235
373,374,0.08070480000000001,-0.0444783,1098.5,-80.623024,61.8642235
374,375,0.07686955000000001,-0.0411973,1073.5,-80.623024,61.8642235
375,376,0.07283085,-0.038835850000000005,1048.5,-80.623024,61.8642235
376,377,0.0691551,-0.03975835,1198.5,-93.88750075,38.8894758
377,378,0.06830115,-0.039060700000000004,1173.5,-93.88750075,38.8894758
378,379,0.0651349,-0.0361336,1148.5,-93.88750075,38.8894758
379,380,0.06828220000000002,-0.03450405,1123.5,-93.88750075,38.8894758
380,381,0.07793829999999999,-0.03573905,1098.5,-93.88750075,38.8894758
381,382,0.07526469999999999,-0.033045000000000005,1073.5,-93.88750075,38.8894758
382,383,0.078705,-0.03886035,1048.5,-93.88750075,38.8894758
383,384,0.0509547,-0.0268,1198.5,-100.75370025000001,13.2644758
384,385,0.039912,-0.02263335,1173.5,-100.75370025000001,13.2644758
385,386,0.0400817,-0.0196109,1148.5,-100.75370025000001,13.2644758
386,387,0.0522837,-0.01867575,1123.5,-100.75370025000001,13.2644758
387,388,0.06666965,-0.01502825,1098.5,-100.75370025000001,13.2644758
388,389,0.08571315,-0.0146898,1073.5,-100.75370025000001,13.2644758
389,390,0.08001895,-0.036302799999999996,1048.5,-100.75370025000001,13.2644758
390,391,0.001239,0.000715114,12.28571415,13.2644758,100.75370025000001
391,392,0.001255745,0.000724882,36.85714245,13.2644758,100.75370025000001
392,393,0.001254395,0.000723528,61.428571700000006,13.2644758,100.75370025000001
393,394,0.001252095,0.0007213594999999999,86.0,13.2644758,100.75370025000001
394,395,0.00124882,0.0007184089999999999,110.5714266,13.2644758,100.75370025000001
395,396,0.001268285,0.0007270045,135.142857,13.2644758,100.75370025000001
396,397,0.0012205150000000001,0.000699021,159.714287,13.2644758,100.75370025000001
397,398,0.00112585,0.0006490840000000001,12.28571415,38.8894758,93.88750075
398,399,0.0011425250000000001,0.0006581625000000001,36.85714245,38.8894758,93.88750075
399,400,0.001153125,0.000660737,61.428571700000006,38.8894758,93.88750075
400,401,0.00114813,0.0006488259999999999,86.0,38.8894758,93.88750075
401,402,0.001199905,0.000662928,110.5714266,38.8894758,93.88750075
402,403,0.001230405,0.0006694655000000001,135.142857,38.8894758,93.88750075
403,404,0.00119754,0.000639758,159.714287,38.8894758,93.88750075
404,405,0.0009102190000000001,0.0005219045,12.28571415,61.86422350000001,80.623024
405,406,0.0009270155,0.000531688,36.85714245,61.86422350000001,80.623024
406,407,0.00093867,0.0005236780000000001,61.428571700000006,61.86422350000001,80.623024
407,408,0.0010031519999999998,0.000538765,86.0,61.86422350000001,80.623024
408,409,0.001053295,0.000528805,110.5714266,61.86422350000001,80.623024
409,410,0.001180815,0.0005522725,135.142857,61.86422350000001,80.623024
410,411,0.001167825,0.000525104,159.714287,61.86422350000001,80.623024
411,412,0.0005910945000000001,0.0003324055,12.28571415,80.623024,61.8642235
412,413,0.0006087255,0.00033990050000000003,36.85714245,80.623024,61.8642235
413,414,0.0006932990000000001,0.00036832200000000003,61.428571700000006,80.623024,61.8642235
414,415,0.0007432954999999999,0.0003409425,86.0,80.623024,61.8642235
415,416,0.0009336440000000001,0.00035801750000000003,110.5714266,80.623024,61.8642235
416,417,0.001057171,0.00034045599999999994,135.142857,80.623024,61.8642235
417,418,0.001166777,0.0003098355,159.714287,80.623024,61.8642235
418,419,0.0003081295,0.0001466875,12.28571415,93.88750075,38.8894758
419,420,0.00028633649999999994,0.0001512325,36.85714245,93.88750075,38.8894758
420,421,0.0003012075,8.49178e-05,61.428571700000006,93.88750075,38.8894758
421,422,0.000553995,9.43102e-05,86.0,93.88750075,38.8894758
422,423,0.0008583815,5.5029e-05,110.5714266,93.88750075,38.8894758
423,424,0.001212738,8.470195e-05,135.142857,93.88750075,38.8894758
424,425,0.001246203,4.1264e-05,159.714287,93.88750075,38.8894758
425,426,0.0005836519999999999,-0.0001375905,12.28571415,100.75370025000001,13.2644758
426,427,0.00041832999999999996,-0.000216426,36.85714245,100.75370025000001,13.2644758
427,428,0.00048465750000000005,-0.000239471,61.428571700000006,100.75370025000001,13.2644758
428,429,0.0007470915,-0.0002705125,86.0,100.75370025000001,13.2644758
429,430,0.0010525665,-0.00027327199999999997,110.5714266,100.75370025000001,13.2644758
430,431,0.00147554,-0.0003588395,135.142857,100.75370025000001,13.2644758
431,432,0.00182507,-0.0003434605,159.714287,100.75370025000001,13.2644758
432,433,0.04056845,0.0133132,1023.6571349999999,-13.2644758,100.75370025000001
433,434,0.04292435,0.01485965,998.9714355,-13.2644758,100.75370025000001
434,435,0.04073635,0.01425605,974.285736,-13.2644758,100.75370025000001
435,436,0.038043400000000005,0.014295,949.6000060000001,-13.2644758,100.75370025000001
436,437,0.03741995,0.01452405,924.914276,-13.2644758,100.75370025000001
437,438,0.035914,0.014417800000000001,900.2285764999999,-13.2644758,100.75370025000001
438,439,0.03494475,0.0145899,875.5428769999999,-13.2644758,100.75370025000001
439,440,0.0343633,0.0146826,850.8571469999999,-13.2644758,100.75370025000001
440,441,0.0331033,0.014365349999999999,826.171417,-13.2644758,100.75370025000001
441,442,0.0320749,0.01504625,801.4857175,-13.2644758,100.75370025000001
442,443,0.03295555,0.01220235,776.800018,-13.2644758,100.75370025000001
443,444,0.0344418,0.0132877,752.114288,-13.2644758,100.75370025000001
444,445,0.0325207,0.012871299999999999,727.4285580000001,-13.2644758,100.75370025000001
445,446,0.03033315,0.012885149999999998,702.7428585,-13.2644758,100.75370025000001
446,447,0.0296516,0.0130393,678.057159,-13.2644758,100.75370025000001
447,448,0.0283314,0.01297005,653.371429,-13.2644758,100.75370025000001
448,449,0.027484599999999998,0.0130738,628.685699,-13.2644758,100.75370025000001
449,450,0.026750049999999997,0.013137900000000001,604.0,-13.2644758,100.75370025000001
450,451,0.02576925,0.0129752,579.314301,-13.2644758,100.75370025000001
451,452,0.025146,0.0132934,554.628571,-13.2644758,100.75370025000001
452,453,0.0256671,0.01106325,529.942841,-13.2644758,100.75370025000001
453,454,0.0263954,0.011767550000000002,505.25712599999997,-13.2644758,100.75370025000001
454,455,0.02488225,0.0114891,480.5714265,-13.2644758,100.75370025000001
455,456,0.02334995,0.01150035,455.885712,-13.2644758,100.75370025000001
456,457,0.02271265,0.01155135,431.199997,-13.2644758,100.75370025000001
457,458,0.02174875,0.01150015,406.514282,-13.2644758,100.75370025000001
458,459,0.021132949999999998,0.01152545,381.8285675,-13.2644758,100.75370025000001
459,460,0.020661,0.0115256,357.14285299999995,-13.2644758,100.75370025000001
460,461,0.020325300000000004,0.01157865,332.457138,-13.2644758,100.75370025000001
461,462,0.020078449999999998,0.0115428,307.771423,-13.2644758,100.75370025000001
462,463,0.02001145,0.0115384,283.0857085,-13.2644758,100.75370025000001
463,464,0.0173701,0.00963399,258.40000150000003,-13.2644758,100.75370025000001
464,465,0.01740705,0.0098864,233.71428650000001,-13.2644758,100.75370025000001
465,466,0.017078450000000002,0.009808055,209.028572,-13.2644758,100.75370025000001
466,467,0.01696745,0.009733705,184.34285749999998,-13.2644758,100.75370025000001
467,468,0.028413599999999997,0.014977150000000002,1023.6571349999999,-38.8894758,93.88750075
468,469,0.03145405,0.016786549999999997,998.9714355,-38.8894758,93.88750075
469,470,0.029698099999999998,0.01617805,974.285736,-38.8894758,93.88750075
470,471,0.02909195,0.01596285,949.6000060000001,-38.8894758,93.88750075
471,472,0.0288685,0.01596385,924.914276,-38.8894758,93.88750075
472,473,0.0280315,0.0155733,900.2285764999999,-38.8894758,93.88750075
473,474,0.027700950000000002,0.015479,875.5428769999999,-38.8894758,93.88750075
474,475,0.0274914,0.01536635,850.8571469999999,-38.8894758,93.88750075
475,476,0.02719725,0.01514395,826.171417,-38.8894758,93.88750075
476,477,0.028013199999999995,0.01573705,801.4857175,-38.8894758,93.88750075
477,478,0.026083800000000004,0.013830750000000001,776.800018,-38.8894758,93.88750075
478,479,0.0282421,0.01512775,752.114288,-38.8894758,93.88750075
479,480,0.02688065,0.01469185,727.4285580000001,-38.8894758,93.88750075
480,481,0.02634755,0.0145487,702.7428585,-38.8894758,93.88750075
481,482,0.02611915,0.014559800000000001,678.057159,-38.8894758,93.88750075
482,483,0.0255016,0.014318250000000001,653.371429,-38.8894758,93.88750075
483,484,0.025193,0.014243450000000001,628.685699,-38.8894758,93.88750075
484,485,0.025018650000000003,0.01418745,604.0,-38.8894758,93.88750075
485,486,0.02481475,0.014099149999999998,579.314301,-38.8894758,93.88750075
486,487,0.025053,0.014307650000000002,554.628571,-38.8894758,93.88750075
487,488,0.023206249999999998,0.012591350000000001,529.942841,-38.8894758,93.88750075
488,489,0.024584500000000002,0.013428599999999999,505.25712599999997,-38.8894758,93.88750075
489,490,0.0236998,0.0131751,480.5714265,-38.8894758,93.88750075
490,491,0.0232837,0.01307065,455.885712,-38.8894758,93.88750075
491,492,0.023212699999999996,0.013151,431.199997,-38.8894758,93.88750075
492,493,0.02282665,0.013027,406.514282,-38.8894758,93.88750075
493,494,0.022683099999999998,0.01301765,381.8285675,-38.8894758,93.88750075
494,495,0.022418550000000002,0.012912950000000001,357.14285299999995,-38.8894758,93.88750075
495,496,0.022386700000000002,0.0129164,332.457138,-38.8894758,93.88750075
496,497,0.022451150000000003,0.012960550000000001,307.771423,-38.8894758,93.88750075
497,498,0.022147850000000004,0.012776949999999999,283.0857085,-38.8894758,93.88750075
498,499,0.0201355,0.01152715,258.40000150000003,-38.8894758,93.88750075
499,500,0.020617,0.01186215,233.71428650000001,-38.8894758,93.88750075
500,501,0.020501050000000003,0.011821449999999999,209.028572,-38.8894758,93.88750075
501,502,0.0202225,0.0116326,184.34285749999998,-38.8894758,93.88750075
502,503,0.0289712,0.01521685,1023.6571349999999,-61.86422350000001,80.623024
503,504,0.03223910000000001,0.01707305,998.9714355,-61.86422350000001,80.623024
504,505,0.0298281,0.015948649999999998,974.285736,-61.86422350000001,80.623024
505,506,0.0293907,0.015940549999999998,949.6000060000001,-61.86422350000001,80.623024
506,507,0.029147350000000002,0.015955499999999997,924.914276,-61.86422350000001,80.623024
507,508,0.02877845,0.0157799,900.2285764999999,-61.86422350000001,80.623024
508,509,0.0284417,0.01562235,875.5428769999999,-61.86422350000001,80.623024
509,510,0.028046849999999998,0.01537475,850.8571469999999,-61.86422350000001,80.623024
510,511,0.026466450000000002,0.01455825,826.171417,-61.86422350000001,80.623024
511,512,0.027885300000000002,0.01563635,801.4857175,-61.86422350000001,80.623024
512,513,0.025394,0.014249000000000001,776.800018,-61.86422350000001,80.623024
513,514,0.027670649999999998,0.015534099999999999,752.114288,-61.86422350000001,80.623024
514,515,0.0261884,0.01479105,727.4285580000001,-61.86422350000001,80.623024
515,516,0.02612355,0.01481565,702.7428585,-61.86422350000001,80.623024
516,517,0.0261092,0.014853350000000001,678.057159,-61.86422350000001,80.623024
517,518,0.02592025,0.014737649999999998,653.371429,-61.86422350000001,80.623024
518,519,0.0257055,0.01461945,628.685699,-61.86422350000001,80.623024
519,520,0.025396099999999998,0.01442935,604.0,-61.86422350000001,80.623024
520,521,0.024480799999999997,0.01395715,579.314301,-61.86422350000001,80.623024
521,522,0.0253658,0.0145278,554.628571,-61.86422350000001,80.623024
522,523,0.022807549999999996,0.013114149999999998,529.942841,-61.86422350000001,80.623024
523,524,0.02418035,0.01389425,505.25712599999997,-61.86422350000001,80.623024
524,525,0.02338995,0.0134694,480.5714265,-61.86422350000001,80.623024
525,526,0.02356345,0.013572999999999998,455.885712,-61.86422350000001,80.623024
526,527,0.02358925,0.013596050000000002,431.199997,-61.86422350000001,80.623024
527,528,0.0236607,0.013631500000000001,406.514282,-61.86422350000001,80.623024
528,529,0.023512850000000002,0.013539849999999999,381.8285675,-61.86422350000001,80.623024
529,530,0.0235162,0.013536000000000001,357.14285299999995,-61.86422350000001,80.623024
530,531,0.02318715,0.013337650000000001,332.457138,-61.86422350000001,80.623024
531,532,0.022954550000000004,0.013224,307.771423,-61.86422350000001,80.623024
532,533,0.023101749999999997,0.013312049999999999,283.0857085,-61.86422350000001,80.623024
533,534,0.0221855,0.0128045,258.40000150000003,-61.86422350000001,80.623024
534,535,0.0225344,0.013003,233.71428650000001,-61.86422350000001,80.623024
535,536,0.02238565,0.012912199999999999,209.028572,-61.86422350000001,80.623024
536,537,0.02232035,0.012852450000000001,184.34285749999998,-61.86422350000001,80.623024
537,538,0.04171514999999999,0.0119182,1023.6571349999999,-80.623024,61.8642235
538,539,0.0414895,0.013743599999999998,998.9714355,-80.623024,61.8642235
539,540,0.038186,0.013389600000000002,974.285736,-80.623024,61.8642235
540,541,0.034607399999999996,0.0135006,949.6000060000001,-80.623024,61.8642235
541,542,0.034306899999999994,0.014382699999999998,924.914276,-80.623024,61.8642235
542,543,0.0328401,0.014418899999999998,900.2285764999999,-80.623024,61.8642235
543,544,0.032599550000000005,0.01517665,875.5428769999999,-80.623024,61.8642235
544,545,0.03339655,0.015574,850.8571469999999,-80.623024,61.8642235
545,546,0.03371225,0.01514145,826.171417,-80.623024,61.8642235
546,547,0.03351685,0.0156005,801.4857175,-80.623024,61.8642235
547,548,0.030917999999999994,0.0119991,776.800018,-80.623024,61.8642235
548,549,0.031282599999999994,0.013340649999999999,752.114288,-80.623024,61.8642235
549,550,0.029386699999999998,0.01311505,727.4285580000001,-80.623024,61.8642235
550,551,0.0274357,0.0131491,702.7428585,-80.623024,61.8642235
551,552,0.027430249999999996,0.01371145,678.057159,-80.623024,61.8642235
552,553,0.0266213,0.0137405,653.371429,-80.623024,61.8642235
553,554,0.026664300000000002,0.01419395,628.685699,-80.623024,61.8642235
554,555,0.0270875,0.0144861,604.0,-80.623024,61.8642235
555,556,0.026957300000000003,0.01420885,579.314301,-80.623024,61.8642235
556,557,0.026734350000000004,0.0143052,554.628571,-80.623024,61.8642235
557,558,0.023936649999999997,0.0118125,529.942841,-80.623024,61.8642235
558,559,0.0247722,0.01272915,505.25712599999997,-80.623024,61.8642235
559,560,0.024020399999999997,0.0126065,480.5714265,-80.623024,61.8642235
560,561,0.02316115,0.012556499999999998,455.885712,-80.623024,61.8642235
561,562,0.02323835,0.012826,431.199997,-80.623024,61.8642235
562,563,0.02275075,0.01277585,406.514282,-80.623024,61.8642235
563,564,0.0229362,0.0130402,381.8285675,-80.623024,61.8642235
564,565,0.022910899999999998,0.013112849999999999,357.14285299999995,-80.623024,61.8642235
565,566,0.023247999999999998,0.0133507,332.457138,-80.623024,61.8642235
566,567,0.02309745,0.01324065,307.771423,-80.623024,61.8642235
567,568,0.0225296,0.01295095,283.0857085,-80.623024,61.8642235
568,569,0.022285850000000003,0.01281475,258.40000150000003,-80.623024,61.8642235
569,570,0.0231692,0.013344050000000001,233.71428650000001,-80.623024,61.8642235
570,571,0.023051349999999998,0.013260999999999998,209.028572,-80.623024,61.8642235
571,572,0.02231955,0.0128661,184.34285749999998,-80.623024,61.8642235
572,573,0.053984500000000005,0.005014065,1023.6571349999999,-93.88750075,38.8894758
573,574,0.05567625,0.00762532,998.9714355,-93.88750075,38.8894758
574,575,0.0482962,0.00829907,974.285736,-93.88750075,38.8894758
575,576,0.04422115,0.009945875,949.6000060000001,-93.88750075,38.8894758
576,577,0.04191075,0.0104634,924.914276,-93.88750075,38.8894758
577,578,0.0395809,0.011856150000000001,900.2285764999999,-93.88750075,38.8894758
578,579,0.038062700000000005,0.0128583,875.5428769999999,-93.88750075,38.8894758
579,580,0.0380069,0.01458985,850.8571469999999,-93.88750075,38.8894758
580,581,0.04102465,0.016944800000000003,826.171417,-93.88750075,38.8894758
581,582,0.0432376,0.01879235,801.4857175,-93.88750075,38.8894758
582,583,0.03730385,0.007435125000000001,776.800018,-93.88750075,38.8894758
583,584,0.038937849999999996,0.00916057,752.114288,-93.88750075,38.8894758
584,585,0.03391645,0.00934061,727.4285580000001,-93.88750075,38.8894758
585,586,0.0311914,0.0103347,702.7428585,-93.88750075,38.8894758
586,587,0.029464949999999997,0.010606,678.057159,-93.88750075,38.8894758
587,588,0.027989400000000005,0.0114697,653.371429,-93.88750075,38.8894758
588,589,0.02725435,0.012166449999999999,628.685699,-93.88750075,38.8894758
589,590,0.0274084,0.013274349999999997,604.0,-93.88750075,38.8894758
590,591,0.029564800000000002,0.0149781,579.314301,-93.88750075,38.8894758
591,592,0.031218500000000003,0.01604135,554.628571,-93.88750075,38.8894758
592,593,0.02603465,0.009469715,529.942841,-93.88750075,38.8894758
593,594,0.0274711,0.01037385,505.25712599999997,-93.88750075,38.8894758
594,595,0.02453425,0.010121749999999999,480.5714265,-93.88750075,38.8894758
595,596,0.022860699999999998,0.01046565,455.885712,-93.88750075,38.8894758
596,597,0.02172525,0.0105045,431.199997,-93.88750075,38.8894758
597,598,0.02078195,0.0107599,406.514282,-93.88750075,38.8894758
598,599,0.0204749,0.0110887,381.8285675,-93.88750075,38.8894758
599,600,0.02061075,0.011497299999999998,357.14285299999995,-93.88750075,38.8894758
600,601,0.02125205,0.0120841,332.457138,-93.88750075,38.8894758
601,602,0.0228995,0.0131502,307.771423,-93.88750075,38.8894758
602,603,0.02355285,0.01355035,283.0857085,-93.88750075,38.8894758
603,604,0.02111985,0.011928850000000001,258.40000150000003,-93.88750075,38.8894758
604,605,0.021619700000000002,0.01227845,233.71428650000001,-93.88750075,38.8894758
605,606,0.02152595,0.01237185,209.028572,-93.88750075,38.8894758
606,607,0.021563699999999998,0.012437,184.34285749999998,-93.88750075,38.8894758
607,608,0.06860745,-0.004223745,1023.6571349999999,-100.75370025000001,13.2644758
608,609,0.06293394999999999,-0.0013687685,998.9714355,-100.75370025000001,13.2644758
609,610,0.05740985,0.0035285950000000003,974.285736,-100.75370025000001,13.2644758
610,611,0.0522158,0.004672795,949.6000060000001,-100.75370025000001,13.2644758
611,612,0.04881705,0.006124375,924.914276,-100.75370025000001,13.2644758
612,613,0.04508165,0.00764863,900.2285764999999,-100.75370025000001,13.2644758
613,614,0.04200055,0.00924145,875.5428769999999,-100.75370025000001,13.2644758
614,615,0.03939465,0.0108954,850.8571469999999,-100.75370025000001,13.2644758
615,616,0.03984555,0.015403400000000001,826.171417,-100.75370025000001,13.2644758
616,617,0.040411600000000006,0.0187521,801.4857175,-100.75370025000001,13.2644758
617,618,0.047024949999999996,0.000640838,776.800018,-100.75370025000001,13.2644758
618,619,0.042654899999999996,0.002387925,752.114288,-100.75370025000001,13.2644758
619,620,0.03865015,0.005378005,727.4285580000001,-100.75370025000001,13.2644758
620,621,0.034515599999999994,0.00602874,702.7428585,-100.75370025000001,13.2644758
621,622,0.031805650000000005,0.006907195,678.057159,-100.75370025000001,13.2644758
622,623,0.02891735,0.00785856,653.371429,-100.75370025000001,13.2644758
623,624,0.02678895,0.00889001,628.685699,-100.75370025000001,13.2644758
624,625,0.025042299999999997,0.009995770000000001,604.0,-100.75370025000001,13.2644758
625,626,0.02611675,0.01279875,579.314301,-100.75370025000001,13.2644758
626,627,0.027281,0.0148972,554.628571,-100.75370025000001,13.2644758
627,628,0.0307932,0.00492098,529.942841,-100.75370025000001,13.2644758
628,629,0.0277338,0.005707535,505.25712599999997,-100.75370025000001,13.2644758
629,630,0.024937550000000003,0.007007765,480.5714265,-100.75370025000001,13.2644758
630,631,0.0220357,0.007182415,455.885712,-100.75370025000001,13.2644758
631,632,0.019923050000000005,0.007442015,431.199997,-100.75370025000001,13.2644758
632,633,0.01826805,0.00788291,406.514282,-100.75370025000001,13.2644758
633,634,0.0167796,0.00814117,381.8285675,-100.75370025000001,13.2644758
634,635,0.01639665,0.00875335,357.14285299999995,-100.75370025000001,13.2644758
635,636,0.016427900000000002,0.00930164,332.457138,-100.75370025000001,13.2644758
636,637,0.0185996,0.01062875,307.771423,-100.75370025000001,13.2644758
637,638,0.02053145,0.0114962,283.0857085,-100.75370025000001,13.2644758
638,639,0.0177776,0.00862767,258.40000150000003,-100.75370025000001,13.2644758
639,640,0.015996800000000002,0.008673360000000001,233.71428650000001,-100.75370025000001,13.2644758
640,641,0.016031049999999998,0.009198640000000001,209.028572,-100.75370025000001,13.2644758
641,642,0.0169535,0.009546855,184.34285749999998,-100.75370025000001,13.2644758
642,643,0.0005609244999999999,0.000293958,2602.666625,2.435684085,-490.559204
643,644,0.000633064,0.0003437865,2602.666625,7.307050825,-466.67762749999997
644,645,0.0006184459999999999,0.000336403,2602.666625,12.178417465,-442.796051
645,646,0.0006159774999999999,0.0003352055,2602.666625,17.049784199999998,-418.9144745
646,647,0.0006147889999999999,0.000335454,2602.666625,21.921150675,-395.032898
647,648,0.0006146115,0.0003354725,2602.666625,26.792517174999997,-371.1513215
648,649,0.000613726,0.00033545949999999993,2602.666625,31.663883674999997,-347.26974500000006
649,650,0.000613797,0.00033545950000000004,2602.666625,36.535251599999995,-323.388153
650,651,0.0006136045,0.0003354585,2602.666625,41.406618099999996,-299.5065765
651,652,0.0006141440000000001,0.00033546499999999996,2602.666625,46.277984599999996,-275.625
652,653,0.000614445,0.0003354625,2602.666625,51.14935299999999,-251.743416
653,654,0.000615697,0.00033549199999999995,2602.666625,56.0207195,-227.86183949999997
654,655,0.000616288,0.000335487,2602.666625,60.89208599999999,-203.98026249999998
655,656,0.000618667,0.00033561,2602.666625,65.7634525,-180.09868600000001
656,657,0.0006193625,0.000335614,2602.666625,70.634819,-156.2171095
657,658,0.000623719,0.0003361255,2602.666625,75.50618739999999,-132.335529
658,659,0.000624199,0.0003359315,2602.666625,80.377553925,-108.45394885000002
659,660,0.0006337504999999999,0.0003386535,2602.666625,85.24891852500001,-84.5723686
660,661,0.0006433090000000001,0.000346658,2602.666625,90.120285,-60.69078825
661,662,0.0006913635000000001,0.0003991345,2626.0,2.43568468,-490.559204
662,663,0.0006041200000000001,0.000348648,2626.0,7.307051179999999,-466.67762749999997
663,664,0.0005855599999999999,0.0003376705,2626.0,12.1784177,-442.796051
664,665,0.0005896585,0.00033965600000000003,2626.0,17.049784199999998,-418.9144745
665,666,0.000590954,0.000339895,2626.0,21.9211502,-395.032898
666,667,0.0005919370000000001,0.00033982650000000006,2626.0,26.7925167,-371.1513215
667,668,0.0005932495000000001,0.00033982200000000004,2626.0,31.6638832,-347.26974500000006
668,669,0.0005947895,0.0003398245,2626.0,36.535251599999995,-323.388153
669,670,0.0005965395,0.000339824,2626.0,41.406618099999996,-299.5065765
670,671,0.0005985035,0.00033982449999999997,2626.0,46.277984599999996,-275.625
671,672,0.000600675,0.00033982449999999997,2626.0,51.14935299999999,-251.743416
672,673,0.0006030635,0.0003398245,2626.0,56.0207195,-227.86183949999997
673,674,0.000605641,0.0003398245,2626.0,60.89208599999999,-203.98026249999998
674,675,0.000608459,0.0003398225,2626.0,65.7634525,-180.09868600000001
675,676,0.000611399,0.000339823,2626.0,70.634819,-156.2171095
676,677,0.000614828,0.0003398835,2626.0,75.50618739999999,-132.335529
677,678,0.000617833,0.0003397945,2626.0,80.377552,-108.45394885000002
678,679,0.0006188789999999999,0.000337871,2626.0,85.2489166,-84.5723686
679,680,0.0006311655,0.00034367999999999996,2626.0,90.120285,-60.69078825
680,681,0.000573046,0.00030162950000000004,2649.333375,2.435684085,-490.559204
681,682,0.000644018,0.000351683,2649.333375,7.307050825,-466.67762749999997
682,683,0.000630521,0.000344456,2649.333375,12.178417465,-442.796051
683,684,0.0006282900000000001,0.0003433085,2649.333375,17.049784199999998,-418.9144745
684,685,0.0006271965,0.000343593,2649.333375,21.921150675,-395.032898
685,686,0.000627131,0.000343621,2649.333375,26.792517175,-371.1513215
686,687,0.0006263110000000001,0.000343617,2649.333375,31.663883675,-347.26974500000006
687,688,0.0006264755,0.0003436155,2649.333375,36.535251599999995,-323.388153
688,689,0.0006263415,0.0003436175,2649.333375,41.406618099999996,-299.5065765
689,690,0.0006268975,0.00034361099999999996,2649.333375,46.277984599999996,-275.625
690,691,0.00062731,0.000343613,2649.333375,51.14935299999999,-251.743416
691,692,0.000628394,0.00034358399999999997,2649.333375,56.0207195,-227.86183949999997
692,693,0.000629219,0.0003435885,2649.333375,60.89208599999999,-203.98026249999998
693,694,0.00063093,0.0003434655,2649.333375,65.7634525,-180.09868600000001
694,695,0.0006320634999999999,0.000343476,2649.333375,70.634819,-156.2171095
695,696,0.0006342165000000001,0.000342954,2649.333375,75.50618739999999,-132.335529
696,697,0.0006349815,0.0003426575,2649.333375,80.377553925,-108.45394885000002
697,698,0.0006361795000000001,0.000341017,2649.333375,85.248918525,-84.5723686
698,699,0.000652885,0.000348029,2649.333375,90.120285,-60.69078825
699,700,0.00656345,6.9415e-05,2578.447875,-2.435684085,-490.559204
700,701,0.002768425,0.001462685,2578.447875,-7.307050825,-466.67762749999997
701,702,0.0035337199999999997,0.00175765,2578.447875,-12.178417465,-442.796051
702,703,0.005332815,0.00251688,2578.447875,-17.049784199999998,-418.9144745
703,704,0.006083935,0.002777275,2578.447875,-21.921150675,-395.032898
704,705,0.007000444999999999,0.00323836,2578.447875,-26.792517174999997,-371.1513215
705,706,0.007309775,0.0033675700000000003,2578.447875,-31.663883674999997,-347.26974500000006
706,707,0.00777952,0.00361978,2578.447875,-36.535251599999995,-323.388153
707,708,0.007921795,0.003684415,2578.447875,-41.406618099999996,-299.5065765
708,709,0.008183429999999998,0.00382057,2578.447875,-46.277984599999996,-275.625
709,710,0.00830291,0.00388176,2578.447875,-51.14935299999999,-251.743416
710,711,0.008484595000000001,0.003971975,2578.447875,-56.0207195,-227.86183949999997
711,712,0.008656625000000001,0.004079340000000001,2578.447875,-60.89208599999999,-203.98026249999998
712,713,0.008835155,0.004182115,2578.447875,-65.7634525,-180.09868600000001
713,714,0.009125399999999999,0.0044015600000000005,2578.447875,-70.634819,-156.2171095
714,715,0.009358115,0.004591400000000001,2578.447875,-75.50618739999999,-132.335529
715,716,0.009836945,0.005021380000000001,2578.447875,-80.377553925,-108.45394885000002
716,717,0.010149545,0.005373175,2578.447875,-85.24891852500001,-84.5723686
717,718,0.010974149999999998,0.006136415,2578.447875,-90.120285,-60.69078825
718,719,0.00350833,-0.00103603,2553.34375,-2.43568468,-490.559204
719,720,0.002965895,0.001663995,2553.34375,-7.307051179999999,-466.67762749999997
720,721,0.005081735,0.0024507549999999998,2553.34375,-12.1784177,-442.796051
721,722,0.006068505,0.00281073,2553.34375,-17.049784199999998,-418.9144745
722,723,0.007139965,0.003289405,2553.34375,-21.9211502,-395.032898
723,724,0.00740257,0.003408365,2553.34375,-26.7925167,-371.1513215
724,725,0.00789881,0.003661915,2553.34375,-31.6638832,-347.26974500000006
725,726,0.00795723,0.003700805,2553.34375,-36.535251599999995,-323.388153
726,727,0.008221545,0.003828255,2553.34375,-41.406618099999996,-299.5065765
727,728,0.00826362,0.003855645,2553.34375,-46.277984599999996,-275.625
728,729,0.008439575,0.00392613,2553.34375,-51.14935299999999,-251.743416
729,730,0.008520535,0.00397344,2553.34375,-56.0207195,-227.86183949999997
730,731,0.008674870000000001,0.00402566,2553.34375,-60.89208599999999,-203.98026249999998
731,732,0.0088268,0.004125145,2553.34375,-65.7634525,-180.09868600000001
732,733,0.009004865,0.004200015,2553.34375,-70.634819,-156.2171095
733,734,0.009266735,0.004415975000000001,2553.34375,-75.50618739999999,-132.335529
734,735,0.009507680000000001,0.0046005149999999995,2553.34375,-80.377552,-108.45394885000002
735,736,0.009856299999999998,0.00503608,2553.34375,-85.2489166,-84.5723686
736,737,0.010295100000000001,0.005518055,2553.34375,-90.120285,-60.69078825
737,738,0.00159069,-0.0008871059999999999,2528.239625,-2.43568468,-490.559204
738,739,0.00257674,0.0011761599999999999,2528.239625,-7.307051179999999,-466.67762749999997
739,740,0.005526745,0.002657605,2528.239625,-12.1784177,-442.796051
740,741,0.007121955,0.003317885,2528.239625,-17.049784199999998,-418.9144745
741,742,0.0075894099999999996,0.003561715,2528.239625,-21.9211502,-395.032898
742,743,0.008161745,0.00382341,2528.239625,-26.7925167,-371.1513215
743,744,0.00813813,0.003834695,2528.239625,-31.6638832,-347.26974500000006
744,745,0.008371965,0.0039248,2528.239625,-36.535251599999995,-323.388153
745,746,0.00832151,0.003911165,2528.239625,-41.406618099999996,-299.5065765
746,747,0.0084609,0.00394691,2528.239625,-46.277984599999996,-275.625
747,748,0.008452065,0.003945565,2528.239625,-51.14935299999999,-251.743416
748,749,0.008564925000000001,0.0039587,2528.239625,-56.0207195,-227.86183949999997
749,750,0.00859687,0.00397602,2528.239625,-60.89208599999999,-203.98026249999998
750,751,0.008711130000000001,0.003979,2528.239625,-65.7634525,-180.09868600000001
751,752,0.008794469999999999,0.00404035,2528.239625,-70.634819,-156.2171095
752,753,0.0089587,0.004083635,2528.239625,-75.50618739999999,-132.335529
753,754,0.009154655,0.004298204999999999,2528.239625,-80.377552,-108.45394885000002
754,755,0.009558694999999999,0.004637845,2528.239625,-85.2489166,-84.5723686
755,756,0.00998338,0.005254775,2528.239625,-90.120285,-60.69078825
756,757,0.00303637,-0.0009377255000000001,2503.135375,-2.43568468,-490.559204
757,758,0.004087545,0.001240995,2503.135375,-7.307051179999999,-466.67762749999997
758,759,0.00620894,0.0027294299999999997,2503.135375,-12.1784177,-442.796051
759,760,0.007483015,0.003529655,2503.135375,-17.049784199999998,-418.9144745
760,761,0.008332365000000001,0.0039580299999999995,2503.135375,-21.9211502,-395.032898
761,762,0.00834989,0.004026135,2503.135375,-26.7925167,-371.1513215
762,763,0.008573225,0.004085315,2503.135375,-31.6638832,-347.26974500000006
763,764,0.00846066,0.004046335,2503.135375,-36.535251599999995,-323.388153
764,765,0.00855071,0.004036045,2503.135375,-41.406618099999996,-299.5065765
765,766,0.008476345,0.004001145,2503.135375,-46.277984599999996,-275.625
766,767,0.00854465,0.003980595,2503.135375,-51.14935299999999,-251.743416
767,768,0.00850007,0.00395361,2503.135375,-56.0207195,-227.86183949999997
768,769,0.008562445,0.00392228,2503.135375,-60.89208599999999,-203.98026249999998
769,770,0.00852605,0.003898835,2503.135375,-65.7634525,-180.09868600000001
770,771,0.008609295,0.003866645,2503.135375,-70.634819,-156.2171095
771,772,0.008626865000000001,0.003900125,2503.135375,-75.50618739999999,-132.335529
772,773,0.008891224999999999,0.00400295,2503.135375,-80.377552,-108.45394885000002
773,774,0.009322074999999999,0.004392395,2503.135375,-85.2489166,-84.5723686
774,775,0.010612400000000001,0.005372095,2503.135375,-90.120285,-60.69078825
775,776,0.005579835,-0.0007994405000000001,2478.03125,-2.43568468,-490.559204
776,777,0.005764285,0.001492435,2478.03125,-7.307051179999999,-466.67762749999997
777,778,0.00704079,0.00288865,2478.03125,-12.1784177,-442.796051
778,779,0.00825993,0.003841395,2478.03125,-17.049784199999998,-418.9144745
779,780,0.0084265,0.004116804999999999,2478.03125,-21.9211502,-395.032898
780,781,0.0086879,0.0042044249999999995,2478.03125,-26.7925167,-371.1513215
781,782,0.008594315,0.004198185,2478.03125,-31.6638832,-347.26974500000006
782,783,0.00864169,0.004147635,2478.03125,-36.535251599999995,-323.388153
783,784,0.00855088,0.004106035,2478.03125,-41.406618099999996,-299.5065765
784,785,0.008578425,0.00405346,2478.03125,-46.277984599999996,-275.625
785,786,0.008507855,0.00401216,2478.03125,-51.14935299999999,-251.743416
786,787,0.008537425,0.003965395,2478.03125,-56.0207195,-227.86183949999997
787,788,0.008456695,0.0039150850000000004,2478.03125,-60.89208599999999,-203.98026249999998
788,789,0.0084934,0.0038659849999999997,2478.03125,-65.7634525,-180.09868600000001
789,790,0.00840343,0.003813785,2478.03125,-70.634819,-156.2171095
790,791,0.0085397,0.00380553,2478.03125,-75.50618739999999,-132.335529
791,792,0.00865161,0.0038900749999999998,2478.03125,-80.377552,-108.45394885000002
792,793,0.009337785000000001,0.004203165,2478.03125,-85.2489166,-84.5723686
793,794,0.0109749,0.005180425000000001,2478.03125,-90.120285,-60.69078825
794,795,0.00781172,-0.00041020149999999997,2452.927125,-2.43568468,-490.559204
795,796,0.00772821,0.00174273,2452.927125,-7.307051179999999,-466.67762749999997
796,797,0.008595835,0.0035250200000000002,2452.927125,-12.1784177,-442.796051
797,798,0.008384530000000001,0.00397931,2452.927125,-17.049784199999998,-418.9144745
798,799,0.008633185000000002,0.00415398,2452.927125,-21.9211502,-395.032898
799,800,0.008626455,0.0042642700000000006,2452.927125,-26.7925167,-371.1513215
800,801,0.008639055,0.00420051,2452.927125,-31.6638832,-347.26974500000006
801,802,0.00860371,0.0042007,2452.927125,-36.535251599999995,-323.388153
802,803,0.008598715,0.004124775,2452.927125,-41.406618099999996,-299.5065765
803,804,0.008554494999999999,0.004097625000000001,2452.927125,-46.277984599999996,-275.625
804,805,0.008562779999999999,0.0040405,2452.927125,-51.14935299999999,-251.743416
805,806,0.008497484999999999,0.003997505,2452.927125,-56.0207195,-227.86183949999997
806,807,0.00852056,0.003955075,2452.927125,-60.89208599999999,-203.98026249999998
807,808,0.00842425,0.00389519,2452.927125,-65.7634525,-180.09868600000001
808,809,0.00850633,0.00387829,2452.927125,-70.634819,-156.2171095
809,810,0.008457505,0.003839565,2452.927125,-75.50618739999999,-132.335529
810,811,0.00883107,0.00393621,2452.927125,-80.377552,-108.45394885000002
811,812,0.009332795,0.004164360000000001,2452.927125,-85.2489166,-84.5723686
812,813,0.0107755,0.00460933,2452.927125,-90.120285,-60.69078825
813,814,0.0114035,-0.000198277,2427.822875,-2.43568468,-490.559204
814,815,0.0106097,0.0031810049999999998,2427.822875,-7.307051179999999,-466.67762749999997
815,816,0.00871799,0.0037517,2427.822875,-12.1784177,-442.796051
816,817,0.008540975,0.00388158,2427.822875,-17.049784199999998,-418.9144745
817,818,0.008544945,0.004161959999999999,2427.822875,-21.9211502,-395.032898
818,819,0.008486279999999999,0.004111865,2427.822875,-26.7925167,-371.1513215
819,820,0.008577485,0.004218695,2427.822875,-31.6638832,-347.26974500000006
820,821,0.00854712,0.00414136,2427.822875,-36.535251599999995,-323.388153
821,822,0.008582235,0.00416331,2427.822875,-41.406618099999996,-299.5065765
822,823,0.008571815,0.004099825,2427.822875,-46.277984599999996,-275.625
823,824,0.008558875,0.004082695,2427.822875,-51.14935299999999,-251.743416
824,825,0.008573935,0.0040441999999999995,2427.822875,-56.0207195,-227.86183949999997
825,826,0.00852532,0.0040063749999999995,2427.822875,-60.89208599999999,-203.98026249999998
826,827,0.008598250000000002,0.004006265,2427.822875,-65.7634525,-180.09868600000001
827,828,0.00855677,0.0039679,2427.822875,-70.634819,-156.2171095
828,829,0.00881406,0.0040490149999999996,2427.822875,-75.50618739999999,-132.335529
829,830,0.008962745,0.00407013,2427.822875,-80.377552,-108.45394885000002
830,831,0.009791135,0.00431296,2427.822875,-85.2489166,-84.5723686
831,832,0.010684099999999998,0.0045535950000000006,2427.822875,-90.120285,-60.69078825
832,833,0.01621465,0.00216723,2402.71875,-2.43568468,-490.559204
833,834,0.010306725,0.003614315,2402.71875,-7.307051179999999,-466.67762749999997
834,835,0.00865153,0.0033127900000000004,2402.71875,-12.1784177,-442.796051
835,836,0.008520635,0.00387658,2402.71875,-17.049784199999998,-418.9144745
836,837,0.008243305,0.003844505,2402.71875,-21.9211502,-395.032898
837,838,0.00848939,0.00412126,2402.71875,-26.7925167,-371.1513215
838,839,0.008421709999999999,0.0040729,2402.71875,-31.6638832,-347.26974500000006
839,840,0.008575764999999999,0.004181245,2402.71875,-36.535251599999995,-323.388153
840,841,0.00853975,0.0041211600000000004,2402.71875,-41.406618099999996,-299.5065765
841,842,0.00859833,0.004143295,2402.71875,-46.277984599999996,-275.625
842,843,0.008589935,0.0040992549999999996,2402.71875,-51.14935299999999,-251.743416
843,844,0.00859623,0.004083525,2402.71875,-56.0207195,-227.86183949999997
844,845,0.008648525,0.004081095,2402.71875,-60.89208599999999,-203.98026249999998
845,846,0.008657695,0.00406199,2402.71875,-65.7634525,-180.09868600000001
846,847,0.008863195,0.00414434,2402.71875,-70.634819,-156.2171095
847,848,0.008996230000000001,0.0041664200000000005,2402.71875,-75.50618739999999,-132.335529
848,849,0.009589315000000001,0.0044093299999999995,2402.71875,-80.377552,-108.45394885000002
849,850,0.010095665,0.00450169,2402.71875,-85.2489166,-84.5723686
850,851,0.0116991,0.00501126,2402.71875,-90.120285,-60.69078825
851,852,0.0046146799999999995,-0.0019003549999999998,2377.614625,-2.43568468,-490.559204
852,853,0.007360595,-0.0006820859999999999,2377.614625,-7.307051179999999,-466.67762749999997
853,854,0.009612820000000001,0.0002065105,2377.614625,-12.1784177,-442.796051
854,855,0.0113905,0.001109435,2377.614625,-17.049784199999998,-418.9144745
855,856,0.012726050000000001,0.001748435,2377.614625,-21.9211502,-395.032898
856,857,0.013855349999999999,0.0024341700000000003,2377.614625,-26.7925167,-371.1513215
857,858,0.0146625,0.002870905,2377.614625,-31.6638832,-347.26974500000006
858,859,0.0154271,0.003370765,2377.614625,-36.535251599999995,-323.388153
859,860,0.0159577,0.00368774,2377.614625,-41.406618099999996,-299.5065765
860,861,0.0165136,0.00406386,2377.614625,-46.277984599999996,-275.625
861,862,0.0169217,0.004344785,2377.614625,-51.14935299999999,-251.743416
862,863,0.017366,0.00467426,2377.614625,-56.0207195,-227.86183949999997
863,864,0.017733850000000002,0.0049963,2377.614625,-60.89208599999999,-203.98026249999998
864,865,0.0181186,0.00536064,2377.614625,-65.7634525,-180.09868600000001
865,866,0.01847625,0.005799825,2377.614625,-70.634819,-156.2171095
866,867,0.018807650000000002,0.006282505,2377.614625,-75.50618739999999,-132.335529
867,868,0.019131250000000002,0.006913225,2377.614625,-80.377552,-108.45394885000002
868,869,0.019350100000000002,0.007576165,2377.614625,-85.2489166,-84.5723686
869,870,0.019535149999999998,0.008469855,2377.614625,-90.120285,-60.69078825
870,871,0.00598076,-0.00171248,2352.510375,-2.43568468,-490.559204
871,872,0.00859184,0.000157517,2352.510375,-7.307051179999999,-466.67762749999997
872,873,0.011065599999999998,0.0010629835,2352.510375,-12.1784177,-442.796051
873,874,0.0126983,0.0017116,2352.510375,-17.049784199999998,-418.9144745
874,875,0.013949099999999999,0.002397125,2352.510375,-21.9211502,-395.032898
875,876,0.0147968,0.0028170599999999997,2352.510375,-26.7925167,-371.1513215
876,877,0.015575249999999999,0.00331444,2352.510375,-31.6638832,-347.26974500000006
877,878,0.016060150000000002,0.003598795,2352.510375,-36.535251599999995,-323.388153
878,879,0.016615,0.003952725,2352.510375,-41.406618099999996,-299.5065765
879,880,0.01696395,0.0041786900000000005,2352.510375,-46.277984599999996,-275.625
880,881,0.01741395,0.0044561800000000006,2352.510375,-51.14935299999999,-251.743416
881,882,0.017735,0.00468854,2352.510375,-56.0207195,-227.86183949999997
882,883,0.0181397,0.004957085,2352.510375,-60.89208599999999,-203.98026249999998
883,884,0.01847165,0.00525685,2352.510375,-65.7634525,-180.09868600000001
884,885,0.018843149999999996,0.00558723,2352.510375,-70.634819,-156.2171095
885,886,0.01916055,0.006020285,2352.510375,-75.50618739999999,-132.335529
886,887,0.0194485,0.00649422,2352.510375,-80.377552,-108.45394885000002
887,888,0.01958655,0.00712077,2352.510375,-85.2489166,-84.5723686
888,889,0.0197127,0.00785593,2352.510375,-90.120285,-60.69078825
889,890,0.007988495,-0.001217895,2327.40625,-2.43568468,-490.559204
890,891,0.00994304,0.0005297965000000001,2327.40625,-7.307051179999999,-466.67762749999997
891,892,0.01226065,0.0016684500000000001,2327.40625,-12.1784177,-442.796051
892,893,0.0139017,0.002473645,2327.40625,-17.049784199999998,-418.9144745
893,894,0.014931050000000001,0.00293382,2327.40625,-21.9211502,-395.032898
894,895,0.015792300000000002,0.0034509199999999997,2327.40625,-26.7925167,-371.1513215
895,896,0.016243399999999998,0.00369168,2327.40625,-31.6638832,-347.26974500000006
896,897,0.016787800000000002,0.00401435,2327.40625,-36.535251599999995,-323.388153
897,898,0.01704875,0.004168985,2327.40625,-41.406618099999996,-299.5065765
898,899,0.017468149999999998,0.004383475,2327.40625,-46.277984599999996,-275.625
899,900,0.017701849999999998,0.00452286,2327.40625,-51.14935299999999,-251.743416
900,901,0.01808045,0.004698125,2327.40625,-56.0207195,-227.86183949999997
901,902,0.0183402,0.004870155,2327.40625,-60.89208599999999,-203.98026249999998
902,903,0.01870885,0.00506456,2327.40625,-65.7634525,-180.09868600000001
903,904,0.018996600000000002,0.005326835,2327.40625,-70.634819,-156.2171095
904,905,0.0193392,0.005625155,2327.40625,-75.50618739999999,-132.335529
905,906,0.0195737,0.0060624500000000005,2327.40625,-80.377552,-108.45394885000002
906,907,0.0198409,0.006640575,2327.40625,-85.2489166,-84.5723686
907,908,0.0197941,0.007377585,2327.40625,-90.120285,-60.69078825
908,909,0.009888765,-0.0009939235,2302.302125,-2.43568468,-490.559204
909,910,0.0116025,0.0008525205,2302.302125,-7.307051179999999,-466.67762749999997
910,911,0.0134217,0.00219732,2302.302125,-12.1784177,-442.796051
911,912,0.0148479,0.00297607,2302.302125,-17.049784199999998,-418.9144745
912,913,0.01592875,0.00364966,2302.302125,-21.9211502,-395.032898
913,914,0.0164143,0.00391093,2302.302125,-26.7925167,-371.1513215
914,915,0.01699225,0.0042395,2302.302125,-31.6638832,-347.26974500000006
915,916,0.017162550000000002,0.00432951,2302.302125,-36.535251599999995,-323.388153
916,917,0.017547849999999997,0.00448514,2302.302125,-41.406618099999996,-299.5065765
917,918,0.0176787,0.004536500000000001,2302.302125,-46.277984599999996,-275.625
918,919,0.01800775,0.004626389999999999,2302.302125,-51.14935299999999,-251.743416
919,920,0.01817145,0.004688009999999999,2302.302125,-56.0207195,-227.86183949999997
920,921,0.018498399999999998,0.004768,2302.302125,-60.89208599999999,-203.98026249999998
921,922,0.0187113,0.0048809100000000005,2302.302125,-65.7634525,-180.09868600000001
922,923,0.0190568,0.00501519,2302.302125,-70.634819,-156.2171095
923,924,0.01932045,0.005267265,2302.302125,-75.50618739999999,-132.335529
924,925,0.019685349999999997,0.005621124999999999,2302.302125,-80.377552,-108.45394885000002
925,926,0.01997765,0.006196565,2302.302125,-85.2489166,-84.5723686
926,927,0.0205409,0.0072236950000000005,2302.302125,-90.120285,-60.69078825
927,928,0.012122649999999999,-0.0006429545,2277.197875,-2.43568468,-490.559204
928,929,0.01318055,0.00124112,2277.197875,-7.307051179999999,-466.67762749999997
929,930,0.014676549999999998,0.002562965,2277.197875,-12.1784177,-442.796051
930,931,0.0159301,0.0036552850000000003,2277.197875,-17.049784199999998,-418.9144745
931,932,0.01651585,0.0040998449999999995,2277.197875,-21.9211502,-395.032898
932,933,0.01718765,0.00454025,2277.197875,-26.7925167,-371.1513215
933,934,0.0172697,0.0046096950000000005,2277.197875,-31.6638832,-347.26974500000006
934,935,0.01764025,0.00473153,2277.197875,-36.535251599999995,-323.388153
935,936,0.01766865,0.004712895,2277.197875,-41.406618099999996,-299.5065765
936,937,0.01794635,0.004729830000000001,2277.197875,-46.277984599999996,-275.625
937,938,0.018014250000000002,0.004704125,2277.197875,-51.14935299999999,-251.743416
938,939,0.0182808,0.004693845,2277.197875,-56.0207195,-227.86183949999997
939,940,0.0184004,0.004690085,2277.197875,-60.89208599999999,-203.98026249999998
940,941,0.0186978,0.004696155,2277.197875,-65.7634525,-180.09868600000001
941,942,0.0188925,0.00477161,2277.197875,-70.634819,-156.2171095
942,943,0.019274099999999995,0.00489618,2277.197875,-75.50618739999999,-132.335529
943,944,0.019651500000000002,0.005231305,2277.197875,-80.377552,-108.45394885000002
944,945,0.02023745,0.00580464,2277.197875,-85.2489166,-84.5723686
945,946,0.021188449999999998,0.006804615,2277.197875,-90.120285,-60.69078825
946,947,0.014005499999999999,-0.0002286395,2252.09375,-2.43568468,-490.559204
947,948,0.015095500000000001,0.0016162149999999998,2252.09375,-7.307051179999999,-466.67762749999997
948,949,0.01613025,0.00328139,2252.09375,-12.1784177,-442.796051
949,950,0.01668995,0.00407421,2252.09375,-17.049784199999998,-418.9144745
950,951,0.017433449999999996,0.0048004350000000005,2252.09375,-21.9211502,-395.032898
951,952,0.01736935,0.00492135,2252.09375,-26.7925167,-371.1513215
952,953,0.017735800000000003,0.0050525,2252.09375,-31.6638832,-347.26974500000006
953,954,0.017660099999999998,0.004998575,2252.09375,-36.535251599999995,-323.388153
954,955,0.017893799999999998,0.00495885,2252.09375,-41.406618099999996,-299.5065765
955,956,0.0178817,0.0048747,2252.09375,-46.277984599999996,-275.625
956,957,0.01808895,0.00479574,2252.09375,-51.14935299999999,-251.743416
957,958,0.018129100000000002,0.004714970000000001,2252.09375,-56.0207195,-227.86183949999997
958,959,0.018356499999999998,0.004635615,2252.09375,-60.89208599999999,-203.98026249999998
959,960,0.0184548,0.004583749999999999,2252.09375,-65.7634525,-180.09868600000001
960,961,0.018768899999999998,0.00455038,2252.09375,-70.634819,-156.2171095
961,962,0.01902345,0.00462998,2252.09375,-75.50618739999999,-132.335529
962,963,0.0195875,0.004804665,2252.09375,-80.377552,-108.45394885000002
963,964,0.02040405,0.00536585,2252.09375,-85.2489166,-84.5723686
964,965,0.02154205,0.00622604,2252.09375,-90.120285,-60.69078825
965,966,0.0165087,0.00017391664999999998,2226.989625,-2.43568468,-490.559204
966,967,0.0170325,0.002476455,2226.989625,-7.307051179999999,-466.67762749999997
967,968,0.017383299999999997,0.0037646,2226.989625,-12.1784177,-442.796051
968,969,0.0180254,0.00498969,2226.989625,-17.049784199999998,-418.9144745
969,970,0.01756105,0.005200245,2226.989625,-21.9211502,-395.032898
970,971,0.0178691,0.00537015,2226.989625,-26.7925167,-371.1513215
971,972,0.01765785,0.00532497,2226.989625,-31.6638832,-347.26974500000006
972,973,0.0178388,0.005242439999999999,2226.989625,-36.535251599999995,-323.388153
973,974,0.0177662,0.00513518,2226.989625,-41.406618099999996,-299.5065765
974,975,0.017921100000000002,0.00500424,2226.989625,-46.277984599999996,-275.625
975,976,0.0179135,0.004885085,2226.989625,-51.14935299999999,-251.743416
976,977,0.0180769,0.004753159999999999,2226.989625,-56.0207195,-227.86183949999997
977,978,0.018107149999999995,0.004634845,2226.989625,-60.89208599999999,-203.98026249999998
978,979,0.01832695,0.004520455,2226.989625,-65.7634525,-180.09868600000001
979,980,0.0184418,0.004439165,2226.989625,-70.634819,-156.2171095
980,981,0.018859849999999997,0.00439829,2226.989625,-75.50618739999999,-132.335529
981,982,0.01930145,0.0045133050000000004,2226.989625,-80.377552,-108.45394885000002
982,983,0.02029305,0.0047268150000000005,2226.989625,-85.2489166,-84.5723686
983,984,0.021880900000000002,0.0056058900000000005,2226.989625,-90.120285,-60.69078825
984,985,0.01889855,0.0009401920000000001,2201.885375,-2.43568468,-490.559204
985,986,0.01923085,0.003090885,2201.885375,-7.307051179999999,-466.67762749999997
986,987,0.0195409,0.005236615,2201.885375,-12.1784177,-442.796051
987,988,0.018072650000000003,0.005492449999999999,2201.885375,-17.049784199999998,-418.9144745
988,989,0.01814135,0.005639005,2201.885375,-21.9211502,-395.032898
989,990,0.017711199999999996,0.005638575,2201.885375,-26.7925167,-371.1513215
990,991,0.017781150000000003,0.005507295000000001,2201.885375,-31.6638832,-347.26974500000006
991,992,0.01766335,0.005417995,2201.885375,-36.535251599999995,-323.388153
992,993,0.017759,0.00524608,2201.885375,-41.406618099999996,-299.5065765
993,994,0.0177383,0.00512431,2201.885375,-46.277984599999996,-275.625
994,995,0.0178505,0.00495943,2201.885375,-51.14935299999999,-251.743416
995,996,0.01785855,0.0048223599999999995,2201.885375,-56.0207195,-227.86183949999997
996,997,0.0180028,0.00467411,2201.885375,-60.89208599999999,-203.98026249999998
997,998,0.018043800000000002,0.00453236,2201.885375,-65.7634525,-180.09868600000001
998,999,0.01830495,0.004415185,2201.885375,-70.634819,-156.2171095
999,1000,0.01849135,0.004310255000000001,2201.885375,-75.50618739999999,-132.335529
1000,1001,0.01913685,0.00426926,2201.885375,-80.377552,-108.45394885000002
1001,1002,0.019849,0.004371099999999999,2201.885375,-85.2489166,-84.5723686
1002,1003,0.021631499999999998,0.00452981,2201.885375,-90.120285,-60.69078825
1003,1004,0.02289635,0.0015803000000000002,2176.78125,-2.43568468,-490.559204
1004,1005,0.0229275,0.00569382,2176.78125,-7.307051179999999,-466.67762749999997
1005,1006,0.01923955,0.005977075,2176.78125,-12.1784177,-442.796051
1006,1007,0.0186506,0.00582827,2176.78125,-17.049784199999998,-418.9144745
1007,1008,0.01791985,0.00591679,2176.78125,-21.9211502,-395.032898
1008,1009,0.01774,0.00569157,2176.78125,-26.7925167,-371.1513215
1009,1010,0.017593699999999997,0.0056671199999999994,2176.78125,-31.6638832,-347.26974500000006
1010,1011,0.01759235,0.0054596,2176.78125,-36.535251599999995,-323.388153
1011,1012,0.0175887,0.0053700399999999995,2176.78125,-41.406618099999996,-299.5065765
1012,1013,0.01764905,0.00518356,2176.78125,-46.277984599999996,-275.625
1013,1014,0.01767275,0.005058685,2176.78125,-51.14935299999999,-251.743416
1014,1015,0.017764799999999997,0.0048954,2176.78125,-56.0207195,-227.86183949999997
1015,1016,0.017797100000000003,0.004750425,2176.78125,-60.89208599999999,-203.98026249999998
1016,1017,0.017955449999999998,0.0046167050000000005,2176.78125,-65.7634525,-180.09868600000001
1017,1018,0.018046100000000002,0.00446245,2176.78125,-70.634819,-156.2171095
1018,1019,0.018413900000000004,0.00437267,2176.78125,-75.50618739999999,-132.335529
1019,1020,0.01873035,0.004221235,2176.78125,-80.377552,-108.45394885000002
1020,1021,0.01974,0.0041896599999999996,2176.78125,-85.2489166,-84.5723686
1021,1022,0.020726349999999998,0.004098155,2176.78125,-90.120285,-60.69078825
1022,1023,0.029542199999999998,0.005436659999999999,2151.677125,-2.43568468,-490.559204
1023,1024,0.021780349999999997,0.0068867600000000005,2151.677125,-7.307051179999999,-466.67762749999997
1024,1025,0.019323450000000002,0.0057779549999999995,2151.677125,-12.1784177,-442.796051
1025,1026,0.018412650000000003,0.00611174,2151.677125,-17.049784199999998,-418.9144745
1026,1027,0.0177401,0.0057351599999999996,2151.677125,-21.9211502,-395.032898
1027,1028,0.01761245,0.005838195,2151.677125,-26.7925167,-371.1513215
1028,1029,0.01743885,0.00560367,2151.677125,-31.6638832,-347.26974500000006
1029,1030,0.01747585,0.0055807700000000005,2151.677125,-36.535251599999995,-323.388153
1030,1031,0.017459549999999997,0.005382965,2151.677125,-41.406618099999996,-299.5065765
1031,1032,0.017518899999999997,0.005289785,2151.677125,-46.277984599999996,-275.625
1032,1033,0.017561399999999998,0.005115755,2151.677125,-51.14935299999999,-251.743416
1033,1034,0.017618349999999998,0.004987025,2151.677125,-56.0207195,-227.86183949999997
1034,1035,0.017714549999999996,0.00484545,2151.677125,-60.89208599999999,-203.98026249999998
1035,1036,0.017800200000000002,0.004702025,2151.677125,-65.7634525,-180.09868600000001
1036,1037,0.01802055,0.00461109,2151.677125,-70.634819,-156.2171095
1037,1038,0.018234399999999998,0.0044576400000000006,2151.677125,-75.50618739999999,-132.335529
1038,1039,0.01878445,0.004440285,2151.677125,-80.377552,-108.45394885000002
1039,1040,0.01935005,0.004217365,2151.677125,-85.2489166,-84.5723686
1040,1041,0.0208512,0.004304395,2151.677125,-90.120285,-60.69078825
1041,1042,0.016266799999999998,-0.004065315,2126.572875,-2.43568468,-490.559204
1042,1043,0.01759685,-0.00299128,2126.572875,-7.307051179999999,-466.67762749999997
1043,1044,0.0193462,-0.00123752,2126.572875,-12.1784177,-442.796051
1044,1045,0.02078555,-0.0002664295,2126.572875,-17.049784199999998,-418.9144745
1045,1046,0.02215925,0.000946559,2126.572875,-21.9211502,-395.032898
1046,1047,0.023210699999999997,0.001691825,2126.572875,-26.7925167,-371.1513215
1047,1048,0.02423,0.0026064499999999997,2126.572875,-31.6638832,-347.26974500000006
1048,1049,0.0249675,0.0031781450000000003,2126.572875,-36.535251599999995,-323.388153
1049,1050,0.025731449999999996,0.00389165,2126.572875,-41.406618099999996,-299.5065765
1050,1051,0.0262709,0.004368985000000001,2126.572875,-46.277984599999996,-275.625
1051,1052,0.0268649,0.004969525,2126.572875,-51.14935299999999,-251.743416
1052,1053,0.02729475,0.005434725,2126.572875,-56.0207195,-227.86183949999997
1053,1054,0.02777905,0.0060142649999999995,2126.572875,-60.89208599999999,-203.98026249999998
1054,1055,0.02814715,0.00654541,2126.572875,-65.7634525,-180.09868600000001
1055,1056,0.028552900000000003,0.0071971150000000005,2126.572875,-70.634819,-156.2171095
1056,1057,0.028867249999999997,0.007865754999999999,2126.572875,-75.50618739999999,-132.335529
1057,1058,0.029193,0.00867983,2126.572875,-80.377552,-108.45394885000002
1058,1059,0.029412999999999998,0.009543525,2126.572875,-85.2489166,-84.5723686
1059,1060,0.029595700000000003,0.01060245,2126.572875,-90.120285,-60.69078825
1060,1061,0.01643195,-0.0023236050000000003,2101.46875,-2.43568468,-490.559204
1061,1062,0.019659550000000005,-0.0013307990000000001,2101.46875,-7.307051179999999,-466.67762749999997
1062,1063,0.0209586,-0.00034640649999999996,2101.46875,-12.1784177,-442.796051
1063,1064,0.02257265,0.0007782805000000001,2101.46875,-17.049784199999998,-418.9144745
1064,1065,0.0235944,0.00150778,2101.46875,-21.9211502,-395.032898
1065,1066,0.02465475,0.00240742,2101.46875,-26.7925167,-371.1513215
1066,1067,0.0253368,0.0029537549999999997,2101.46875,-31.6638832,-347.26974500000006
1067,1068,0.026104099999999998,0.00364957,2101.46875,-36.535251599999995,-323.388153
1068,1069,0.0265791,0.004080085,2101.46875,-41.406618099999996,-299.5065765
1069,1070,0.02717995,0.004635574999999999,2101.46875,-46.277984599999996,-275.625
1070,1071,0.02756385,0.00502388,2101.46875,-51.14935299999999,-251.743416
1071,1072,0.028069699999999996,0.005518345,2101.46875,-56.0207195,-227.86183949999997
1072,1073,0.02842595,0.00593361,2101.46875,-60.89208599999999,-203.98026249999998
1073,1074,0.02886865,0.006448765,2101.46875,-65.7634525,-180.09868600000001
1074,1075,0.02921205,0.00695671,2101.46875,-70.634819,-156.2171095
1075,1076,0.029577900000000004,0.007574875,2101.46875,-75.50618739999999,-132.335529
1076,1077,0.02986685,0.008236025,2101.46875,-80.377552,-108.45394885000002
1077,1078,0.030064199999999996,0.00903378,2101.46875,-85.2489166,-84.5723686
1078,1079,0.030197199999999997,0.009919595,2101.46875,-90.120285,-60.69078825
1079,1080,0.017873800000000002,-0.0014556500000000002,2076.364625,-2.43568468,-490.559204
1080,1081,0.02060525,2.3505999999999975e-06,2076.364625,-7.307051179999999,-466.67762749999997
1081,1082,0.022708100000000002,0.0008653875,2076.364625,-12.1784177,-442.796051
1082,1083,0.02391155,0.001650945,2076.364625,-17.049784199999998,-418.9144745
1083,1084,0.0251072,0.0024874800000000002,2076.364625,-21.9211502,-395.032898
1084,1085,0.0257762,0.00300527,2076.364625,-26.7925167,-371.1513215
1085,1086,0.02655505,0.00365939,2076.364625,-31.6638832,-347.26974500000006
1086,1087,0.026945250000000004,0.0040224200000000005,2076.364625,-36.535251599999995,-323.388153
1087,1088,0.0275254,0.004511325,2076.364625,-41.406618099999996,-299.5065765
1088,1089,0.027818249999999996,0.00480562,2076.364625,-46.277984599999996,-275.625
1089,1090,0.02830365,0.005200359999999999,2076.364625,-51.14935299999999,-251.743416
1090,1091,0.028591850000000002,0.005493255000000001,2076.364625,-56.0207195,-227.86183949999997
1091,1092,0.0290299,0.005868885000000001,2076.364625,-60.89208599999999,-203.98026249999998
1092,1093,0.029345600000000003,0.00622101,2076.364625,-65.7634525,-180.09868600000001
1093,1094,0.029736199999999997,0.006653685,2076.364625,-70.634819,-156.2171095
1094,1095,0.03006335,0.00713309,2076.364625,-75.50618739999999,-132.335529
1095,1096,0.030338250000000004,0.00771079,2076.364625,-80.377552,-108.45394885000002
1096,1097,0.030602599999999997,0.008411815,2076.364625,-85.2489166,-84.5723686
1097,1098,0.03059505,0.009243914999999998,2076.364625,-90.120285,-60.69078825
1098,1099,0.019796599999999998,-0.0009621294999999999,2051.260435,-2.43568468,-490.559204
1099,1100,0.02185735,0.0007204525000000001,2051.260435,-7.307051179999999,-466.67762749999997
1100,1101,0.02387625,0.0018244,2051.260435,-12.1784177,-442.796051
1101,1102,0.0253093,0.0026844900000000003,2051.260435,-17.049784199999998,-418.9144745
1102,1103,0.0261441,0.00326022,2051.260435,-21.9211502,-395.032898
1103,1104,0.026983550000000002,0.0038988750000000004,2051.260435,-26.7925167,-371.1513215
1104,1105,0.027315,0.00420947,2051.260435,-31.6638832,-347.26974500000006
1105,1106,0.0278773,0.004633695,2051.260435,-36.535251599999995,-323.388153
1106,1107,0.0280578,0.00483027,2051.260435,-41.406618099999996,-299.5065765
1107,1108,0.02850245,0.00512075,2051.260435,-46.277984599999996,-275.625
1108,1109,0.0286868,0.00529105,2051.260435,-51.14935299999999,-251.743416
1109,1110,0.029088,0.00553002,2051.260435,-56.0207195,-227.86183949999997
1110,1111,0.029326650000000003,0.005731325000000001,2051.260435,-60.89208599999999,-203.98026249999998
1111,1112,0.029709100000000002,0.005987744999999999,2051.260435,-65.7634525,-180.09868600000001
1112,1113,0.03001395,0.0062866499999999995,2051.260435,-70.634819,-156.2171095
1113,1114,0.030352,0.00664792,2051.260435,-75.50618739999999,-132.335529
1114,1115,0.0306998,0.00715256,2051.260435,-80.377552,-108.45394885000002
1115,1116,0.030909,0.007758715,2051.260435,-85.2489166,-84.5723686
1116,1117,0.03129765,0.008701875000000001,2051.260435,-90.120285,-60.69078825
1117,1118,0.021656250000000002,-0.0003571675,2026.15625,-2.43568468,-490.559204
1118,1119,0.0234988,0.0012744499999999999,2026.15625,-7.307051179999999,-466.67762749999997
1119,1120,0.02509675,0.00265046,2026.15625,-12.1784177,-442.796051
1120,1121,0.0263431,0.003475,2026.15625,-17.049784199999998,-418.9144745
1121,1122,0.0272956,0.00424133,2026.15625,-21.9211502,-395.032898
1122,1123,0.027638700000000002,0.0045696899999999995,2026.15625,-26.7925167,-371.1513215
1123,1124,0.0282039,0.0049748399999999995,2026.15625,-31.6638832,-347.26974500000006
1124,1125,0.028266149999999997,0.005090885,2026.15625,-36.535251599999995,-323.388153
1125,1126,0.02866705,0.00528621,2026.15625,-41.406618099999996,-299.5065765
1126,1127,0.02872985,0.005343215,2026.15625,-46.277984599999996,-275.625
1127,1128,0.029075749999999997,0.0054540149999999996,2026.15625,-51.14935299999999,-251.743416
1128,1129,0.029209,0.0055178350000000004,2026.15625,-56.0207195,-227.86183949999997
1129,1130,0.029548650000000003,0.005615305,2026.15625,-60.89208599999999,-203.98026249999998
1130,1131,0.02977365,0.00574004,2026.15625,-65.7634525,-180.09868600000001
1131,1132,0.0301242,0.005892815,2026.15625,-70.634819,-156.2171095
1132,1133,0.030467099999999997,0.006180715,2026.15625,-75.50618739999999,-132.335529
1133,1134,0.030811599999999998,0.00652395,2026.15625,-80.377552,-108.45394885000002
1134,1135,0.03129695,0.007173005,2026.15625,-85.2489166,-84.5723686
1135,1136,0.0317099,0.007965935,2026.15625,-90.120285,-60.69078825
1136,1137,0.02369005,0.000172978,2001.052065,-2.43568468,-490.559204
1137,1138,0.02508505,0.002015115,2001.052065,-7.307051179999999,-466.67762749999997
1138,1139,0.026481150000000002,0.0032855949999999997,2001.052065,-12.1784177,-442.796051
1139,1140,0.0275357,0.00447922,2001.052065,-17.049784199999998,-418.9144745
1140,1141,0.0279332,0.00495195,2001.052065,-21.9211502,-395.032898
1141,1142,0.0285175,0.00545788,2001.052065,-26.7925167,-371.1513215
1142,1143,0.028440450000000003,0.005533735,2001.052065,-31.6638832,-347.26974500000006
1143,1144,0.028800199999999998,0.0056615350000000005,2001.052065,-36.535251599999995,-323.388153
1144,1145,0.0287306,0.005625720000000001,2001.052065,-41.406618099999996,-299.5065765
1145,1146,0.029014699999999997,0.00562112,2001.052065,-46.277984599999996,-275.625
1146,1147,0.0290351,0.005570159999999999,2001.052065,-51.14935299999999,-251.743416
1147,1148,0.02930985,0.0055312,2001.052065,-56.0207195,-227.86183949999997
1148,1149,0.0294292,0.00550815,2001.052065,-60.89208599999999,-203.98026249999998
1149,1150,0.029734950000000003,0.005485775,2001.052065,-65.7634525,-180.09868600000001
1150,1151,0.029983799999999998,0.005559245,2001.052065,-70.634819,-156.2171095
1151,1152,0.030366900000000002,0.0056381899999999995,2001.052065,-75.50618739999999,-132.335529
1152,1153,0.030845799999999996,0.00598418,2001.052065,-80.377552,-108.45394885000002
1153,1154,0.0313656,0.006397425,2001.052065,-85.2489166,-84.5723686
1154,1155,0.03218185,0.007275165,2001.052065,-90.120285,-60.69078825
1155,1156,0.025631849999999998,0.0008256785,1975.9479350000001,-2.43568468,-490.559204
1156,1157,0.027041250000000003,0.002630475,1975.9479350000001,-7.307051179999999,-466.67762749999997
1157,1158,0.028049599999999997,0.004410725,1975.9479350000001,-12.1784177,-442.796051
1158,1159,0.028377199999999998,0.00518556,1975.9479350000001,-17.049784199999998,-418.9144745
1159,1160,0.028957149999999997,0.00599905,1975.9479350000001,-21.9211502,-395.032898
1160,1161,0.028625200000000003,0.006082785,1975.9479350000001,-26.7925167,-371.1513215
1161,1162,0.028931199999999997,0.00618547,1975.9479350000001,-31.6638832,-347.26974500000006
1162,1163,0.0287035,0.006086065,1975.9479350000001,-36.535251599999995,-323.388153
1163,1164,0.02892,0.00598016,1975.9479350000001,-41.406618099999996,-299.5065765
1164,1165,0.0288324,0.00584352,1975.9479350000001,-46.277984599999996,-275.625
1165,1166,0.0290346,0.005689224999999999,1975.9479350000001,-51.14935299999999,-251.743416
1166,1167,0.029054249999999997,0.00555763,1975.9479350000001,-56.0207195,-227.86183949999997
1167,1168,0.029282199999999998,0.005402255,1975.9479350000001,-60.89208599999999,-203.98026249999998
1168,1169,0.02941075,0.005309605,1975.9479350000001,-65.7634525,-180.09868600000001
1169,1170,0.029729500000000002,0.0051906850000000004,1975.9479350000001,-70.634819,-156.2171095
1170,1171,0.0300519,0.00523683,1975.9479350000001,-75.50618739999999,-132.335529
1171,1172,0.03059895,0.0052682300000000005,1975.9479350000001,-80.377552,-108.45394885000002
1172,1173,0.03137645,0.00573566,1975.9479350000001,-85.2489166,-84.5723686
1173,1174,0.0322589,0.006294595,1975.9479350000001,-90.120285,-60.69078825
1174,1175,0.02814525,0.00149131,1950.84375,-2.43568468,-490.559204
1175,1176,0.02914415,0.003897495,1950.84375,-7.307051179999999,-466.67762749999997
1176,1177,0.0294094,0.00520138,1950.84375,-12.1784177,-442.796051
1177,1178,0.0298871,0.00659224,1950.84375,-17.049784199999998,-418.9144745
1178,1179,0.028950849999999997,0.006699895,1950.84375,-21.9211502,-395.032898
1179,1180,0.02914135,0.006797465,1950.84375,-26.7925167,-371.1513215
1180,1181,0.0286848,0.006664089999999999,1950.84375,-31.6638832,-347.26974500000006
1181,1182,0.028809,0.006462735000000001,1950.84375,-36.535251599999995,-323.388153
1182,1183,0.0286192,0.006273135,1950.84375,-41.406618099999996,-299.5065765
1183,1184,0.028744500000000003,0.006018705,1950.84375,-46.277984599999996,-275.625
1184,1185,0.02868905,0.0058195,1950.84375,-51.14935299999999,-251.743416
1185,1186,0.028834099999999998,0.00556563,1950.84375,-56.0207195,-227.86183949999997
1186,1187,0.02886635,0.00537149,1950.84375,-60.89208599999999,-203.98026249999998
1187,1188,0.02907515,0.005129455,1950.84375,-65.7634525,-180.09868600000001
1188,1189,0.0292296,0.004974145,1950.84375,-70.634819,-156.2171095
1189,1190,0.029635599999999998,0.004773595,1950.84375,-75.50618739999999,-132.335529
1190,1191,0.030089199999999997,0.0047873099999999995,1950.84375,-80.377552,-108.45394885000002
1191,1192,0.031000049999999998,0.004755860000000001,1950.84375,-85.2489166,-84.5723686
1192,1193,0.032305,0.005420535000000001,1950.84375,-90.120285,-60.69078825
1193,1194,0.03074885,0.002539985,1925.739565,-2.43568468,-490.559204
1194,1195,0.031623,0.00486815,1925.739565,-7.307051179999999,-466.67762749999997
1195,1196,0.0319482,0.00739435,1925.739565,-12.1784177,-442.796051
1196,1197,0.02965865,0.0074740250000000005,1925.739565,-17.049784199999998,-418.9144745
1197,1198,0.029557150000000004,0.0074621900000000005,1925.739565,-21.9211502,-395.032898
1198,1199,0.0287478,0.00731862,1925.739565,-26.7925167,-371.1513215
1199,1200,0.02870655,0.0069965900000000004,1925.739565,-31.6638832,-347.26974500000006
1200,1201,0.028417150000000002,0.00678988,1925.739565,-36.535251599999995,-323.388153
1201,1202,0.028446899999999997,0.006441634999999999,1925.739565,-41.406618099999996,-299.5065765
1202,1203,0.0283476,0.0062128800000000005,1925.739565,-46.277984599999996,-275.625
1203,1204,0.0284144,0.00588292,1925.739565,-51.14935299999999,-251.743416
1204,1205,0.02839435,0.00564204,1925.739565,-56.0207195,-227.86183949999997
1205,1206,0.02850055,0.00532763,1925.739565,-60.89208599999999,-203.98026249999998
1206,1207,0.02854665,0.005078735,1925.739565,-65.7634525,-180.09868600000001
1207,1208,0.0287694,0.004773675,1925.739565,-70.634819,-156.2171095
1208,1209,0.02896415,0.0045410550000000004,1925.739565,-75.50618739999999,-132.335529
1209,1210,0.0295503,0.004257745,1925.739565,-80.377552,-108.45394885000002
1210,1211,0.030172749999999998,0.0041714149999999995,1925.739565,-85.2489166,-84.5723686
1211,1212,0.0317939,0.00399458,1925.739565,-90.120285,-60.69078825
1212,1213,0.0354095,0.003635505,1900.6354350000001,-2.43568468,-490.559204
1213,1214,0.0362565,0.008615615,1900.6354350000001,-7.307051179999999,-466.67762749999997
1214,1215,0.0311146,0.008660545,1900.6354350000001,-12.1784177,-442.796051
1215,1216,0.03024615,0.00813874,1900.6354350000001,-17.049784199999998,-418.9144745
1216,1217,0.0290066,0.008034335,1900.6354350000001,-21.9211502,-395.032898
1217,1218,0.028633450000000005,0.00750875,1900.6354350000001,-26.7925167,-371.1513215
1218,1219,0.0282643,0.00733011,1900.6354350000001,-31.6638832,-347.26974500000006
1219,1220,0.02814715,0.0068847000000000005,1900.6354350000001,-36.535251599999995,-323.388153
1220,1221,0.028037600000000003,0.006663115000000001,1900.6354350000001,-41.406618099999996,-299.5065765
1221,1222,0.02802045,0.006271075,1900.6354350000001,-46.277984599999996,-275.625
1222,1223,0.0279911,0.006022085,1900.6354350000001,-51.14935299999999,-251.743416
1223,1224,0.0280166,0.0056617,1900.6354350000001,-56.0207195,-227.86183949999997
1224,1225,0.028020949999999996,0.005388525,1900.6354350000001,-60.89208599999999,-203.98026249999998
1225,1226,0.0281058,0.00504267,1900.6354350000001,-65.7634525,-180.09868600000001
1226,1227,0.0281724,0.00473927,1900.6354350000001,-70.634819,-156.2171095
1227,1228,0.028441450000000004,0.004393965,1900.6354350000001,-75.50618739999999,-132.335529
1228,1229,0.0286968,0.00404377,1900.6354350000001,-80.377552,-108.45394885000002
1229,1230,0.0295535,0.003682225,1900.6354350000001,-85.2489166,-84.5723686
1230,1231,0.03034255,0.0032987,1900.6354350000001,-90.120285,-60.69078825
1231,1232,0.0441179,0.00905362,1875.53125,-2.43568468,-490.559204
1232,1233,0.03424895,0.01061575,1875.53125,-7.307051179999999,-466.67762749999997
1233,1234,0.030987100000000004,0.00860478,1875.53125,-12.1784177,-442.796051
1234,1235,0.029597500000000002,0.008738010000000001,1875.53125,-17.049784199999998,-418.9144745
1235,1236,0.02857445,0.007902355,1875.53125,-21.9211502,-395.032898
1236,1237,0.02821745,0.007823605,1875.53125,-26.7925167,-371.1513215
1237,1238,0.02785765,0.00728176,1875.53125,-31.6638832,-347.26974500000006
1238,1239,0.027777450000000002,0.00710591,1875.53125,-36.535251599999995,-323.388153
1239,1240,0.02764785,0.006665585,1875.53125,-41.406618099999996,-299.5065765
1240,1241,0.02764175,0.00643502,1875.53125,-46.277984599999996,-275.625
1241,1242,0.0275949,0.006042215,1875.53125,-51.14935299999999,-251.743416
1242,1243,0.027603999999999997,0.005776625,1875.53125,-56.0207195,-227.86183949999997
1243,1244,0.0276023,0.0054106,1875.53125,-60.89208599999999,-203.98026249999998
1244,1245,0.0276331,0.0051128200000000006,1875.53125,-65.7634525,-180.09868600000001
1245,1246,0.027717199999999997,0.004761905,1875.53125,-70.634819,-156.2171095
1246,1247,0.027839799999999998,0.0044091600000000005,1875.53125,-75.50618739999999,-132.335529
1247,1248,0.02817555,0.00406283,1875.53125,-80.377552,-108.45394885000002
1248,1249,0.0285747,0.003554395,1875.53125,-85.2489166,-84.5723686
1249,1250,0.02971545,0.003208705,1875.53125,-90.120285,-60.69078825
1250,1251,0.02942535,-0.005958065,1850.427065,-2.43568468,-490.559204
1251,1252,0.02840455,-0.0049258900000000005,1850.427065,-7.307051179999999,-466.67762749999997
1252,1253,0.029647799999999995,-0.00230212,1850.427065,-12.1784177,-442.796051
1253,1254,0.0306725,-0.001131995,1850.427065,-17.049784199999998,-418.9144745
1254,1255,0.0318862,0.000547614,1850.427065,-21.9211502,-395.032898
1255,1256,0.03275875,0.001472365,1850.427065,-26.7925167,-371.1513215
1256,1257,0.0336929,0.00270813,1850.427065,-31.6638832,-347.26974500000006
1257,1258,0.03429815,0.003428255,1850.427065,-36.535251599999995,-323.388153
1258,1259,0.034983099999999996,0.004380810000000001,1850.427065,-41.406618099999996,-299.5065765
1259,1260,0.0353911,0.00498064,1850.427065,-46.277984599999996,-275.625
1260,1261,0.03589265,0.005765035,1850.427065,-51.14935299999999,-251.743416
1261,1262,0.03618305,0.006334175,1850.427065,-56.0207195,-227.86183949999997
1262,1263,0.036560749999999996,0.00705879,1850.427065,-60.89208599999999,-203.98026249999998
1263,1264,0.03678775000000001,0.007682305,1850.427065,-65.7634525,-180.09868600000001
1264,1265,0.03708585,0.008450445000000001,1850.427065,-70.634819,-156.2171095
1265,1266,0.037279400000000004,0.009209355,1850.427065,-75.50618739999999,-132.335529
1266,1267,0.0375292,0.0101169,1850.427065,-80.377552,-108.45394885000002
1267,1268,0.03770675,0.011095349999999999,1850.427065,-85.2489166,-84.5723686
1268,1269,0.03792595,0.0122246,1850.427065,-90.120285,-60.69078825
1269,1270,0.02801815,-0.002494545,1825.3229350000001,-2.43568468,-490.559204
1270,1271,0.0317123,-0.00249971,1825.3229350000001,-7.307051179999999,-466.67762749999997
1271,1272,0.03160135,-0.0013006,1825.3229350000001,-12.1784177,-442.796051
1272,1273,0.03306995,0.000200357,1825.3229350000001,-17.049784199999998,-418.9144745
1273,1274,0.0336606,0.00111559,1825.3229350000001,-21.9211502,-395.032898
1274,1275,0.0346196,0.00233571,1825.3229350000001,-26.7925167,-371.1513215
1275,1276,0.03507035,0.003033715,1825.3229350000001,-31.6638832,-347.26974500000006
1276,1277,0.03574795,0.00397582,1825.3229350000001,-36.535251599999995,-323.388153
1277,1278,0.03603845,0.004529490000000001,1825.3229350000001,-41.406618099999996,-299.5065765
1278,1279,0.03654175,0.005274279999999999,1825.3229350000001,-46.277984599999996,-275.625
1279,1280,0.036752450000000006,0.00576591,1825.3229350000001,-51.14935299999999,-251.743416
1280,1281,0.03714935,0.006409935,1825.3229350000001,-56.0207195,-227.86183949999997
1281,1282,0.03733825,0.006916230000000001,1825.3229350000001,-60.89208599999999,-203.98026249999998
1282,1283,0.03767075,0.007554165,1825.3229350000001,-65.7634525,-180.09868600000001
1283,1284,0.03786194999999999,0.008146655,1825.3229350000001,-70.634819,-156.2171095
1284,1285,0.03814845,0.00886892,1825.3229350000001,-75.50618739999999,-132.335529
1285,1286,0.03833075,0.009613945,1825.3229350000001,-80.377552,-108.45394885000002
1286,1287,0.03856535,0.010502850000000001,1825.3229350000001,-85.2489166,-84.5723686
1287,1288,0.03869085,0.01146935,1825.3229350000001,-90.120285,-60.69078825
1288,1289,0.028887799999999998,-0.0013517450000000001,1800.21875,-2.43568468,-490.559204
1289,1290,0.03212565,-4.87247e-05,1800.21875,-7.307051179999999,-466.67762749999997
1290,1291,0.03411335,0.0004030375,1800.21875,-12.1784177,-442.796051
1291,1292,0.03461185,0.00134501,1800.21875,-17.049784199999998,-418.9144745
1292,1293,0.035683400000000004,0.002371485,1800.21875,-21.9211502,-395.032898
1293,1294,0.03598545,0.0030321949999999997,1800.21875,-26.7925167,-371.1513215
1294,1295,0.0366576,0.0039025400000000003,1800.21875,-31.6638832,-347.26974500000006
1295,1296,0.036791199999999996,0.004380805,1800.21875,-36.535251599999995,-323.388153
1296,1297,0.03726515,0.00504686,1800.21875,-41.406618099999996,-299.5065765
1297,1298,0.0373412,0.005435835,1800.21875,-46.277984599999996,-275.625
1298,1299,0.037712999999999997,0.00597129,1800.21875,-51.14935299999999,-251.743416
1299,1300,0.0378047,0.00634629,1800.21875,-56.0207195,-227.86183949999997
1300,1301,0.03812605,0.006837915,1800.21875,-60.89208599999999,-203.98026249999998
1301,1302,0.038262199999999996,0.007263265,1800.21875,-65.7634525,-180.09868600000001
1302,1303,0.0385534,0.00779455,1800.21875,-70.634819,-156.2171095
1303,1304,0.038728750000000006,0.008333465,1800.21875,-75.50618739999999,-132.335529
1304,1305,0.03897325,0.00899055,1800.21875,-80.377552,-108.45394885000002
1305,1306,0.03913585,0.00970426,1800.21875,-85.2489166,-84.5723686
1306,1307,0.0392652,0.0105716,1800.21875,-90.120285,-60.69078825
1307,1308,0.030795049999999997,-0.0005489355,1775.114565,-2.43568468,-490.559204
1308,1309,0.0331727,0.000940761,1775.114565,-7.307051179999999,-466.67762749999997
1309,1310,0.0352075,0.00201664,1775.114565,-12.1784177,-442.796051
1310,1311,0.0364698,0.0027410100000000003,1775.114565,-17.049784199999998,-418.9144745
1311,1312,0.0368816,0.00342064,1775.114565,-21.9211502,-395.032898
1312,1313,0.03758015,0.004178955,1775.114565,-26.7925167,-371.1513215
1313,1314,0.03758055,0.004583935000000001,1775.114565,-31.6638832,-347.26974500000006
1314,1315,0.038019700000000003,0.005145775,1775.114565,-36.535251599999995,-323.388153
1315,1316,0.03793125,0.0054187950000000006,1775.114565,-41.406618099999996,-299.5065765
1316,1317,0.03825415,0.0058239550000000005,1775.114565,-46.277984599999996,-275.625
1317,1318,0.0382081,0.0060594,1775.114565,-51.14935299999999,-251.743416
1318,1319,0.03848485,0.00639349,1775.114565,-56.0207195,-227.86183949999997
1319,1320,0.038518800000000006,0.00665173,1775.114565,-60.89208599999999,-203.98026249999998
1320,1321,0.0387827,0.00698909,1775.114565,-65.7634525,-180.09868600000001
1321,1322,0.0389043,0.007329365,1775.114565,-70.634819,-156.2171095
1322,1323,0.039152150000000004,0.007751330000000001,1775.114565,-75.50618739999999,-132.335529
1323,1324,0.0393403,0.00824723,1775.114565,-80.377552,-108.45394885000002
1324,1325,0.03951175,0.0088561,1775.114565,-85.2489166,-84.5723686
1325,1326,0.03971895,0.00961619,1775.114565,-90.120285,-60.69078825
1326,1327,0.0325475,0.0002490075,1750.0104350000001,-2.43568468,-490.559204
1327,1328,0.03483105,0.0018534049999999998,1750.0104350000001,-7.307051179999999,-466.67762749999997
1328,1329,0.036447499999999994,0.003120055,1750.0104350000001,-12.1784177,-442.796051
1329,1330,0.0375665,0.0039653299999999995,1750.0104350000001,-17.049784199999998,-418.9144745
1330,1331,0.0383394,0.0047141200000000005,1750.0104350000001,-21.9211502,-395.032898
1331,1332,0.03833245,0.00509789,1750.0104350000001,-26.7925167,-371.1513215
1332,1333,0.038745199999999994,0.0055708500000000005,1750.0104350000001,-31.6638832,-347.26974500000006
1333,1334,0.03848735,0.005733175,1750.0104350000001,-36.535251599999995,-323.388153
1334,1335,0.038752400000000006,0.005996615,1750.0104350000001,-41.406618099999996,-299.5065765
1335,1336,0.0385471,0.006092865,1750.0104350000001,-46.277984599999996,-275.625
1336,1337,0.0387594,0.006262435,1750.0104350000001,-51.14935299999999,-251.743416
1337,1338,0.0386625,0.00636051,1750.0104350000001,-56.0207195,-227.86183949999997
1338,1339,0.03886930000000001,0.006509035,1750.0104350000001,-60.89208599999999,-203.98026249999998
1339,1340,0.0388887,0.006656855,1750.0104350000001,-65.7634525,-180.09868600000001
1340,1341,0.039111599999999996,0.00684679,1750.0104350000001,-70.634819,-156.2171095
1341,1342,0.03925985,0.007119014999999999,1750.0104350000001,-75.50618739999999,-132.335529
1342,1343,0.039477349999999994,0.0074512499999999995,1750.0104350000001,-80.377552,-108.45394885000002
1343,1344,0.03974395,0.00796915,1750.0104350000001,-85.2489166,-84.5723686
1344,1345,0.0398949,0.008588720000000001,1750.0104350000001,-90.120285,-60.69078825
1345,1346,0.0346835,0.0009723970000000001,1724.90625,-2.43568468,-490.559204
1346,1347,0.036359749999999996,0.0028108300000000003,1724.90625,-7.307051179999999,-466.67762749999997
1347,1348,0.037918099999999996,0.00409346,1724.90625,-12.1784177,-442.796051
1348,1349,0.03886389999999999,0.005279025,1724.90625,-17.049784199999998,-418.9144745
1349,1350,0.039014049999999995,0.005758940000000001,1724.90625,-21.9211502,-395.032898
1350,1351,0.03941485,0.00626373,1724.90625,-26.7925167,-371.1513215
1351,1352,0.038985099999999995,0.006342635,1724.90625,-31.6638832,-347.26974500000006
1352,1353,0.03918755,0.006473635,1724.90625,-36.535251599999995,-323.388153
1353,1354,0.038813150000000005,0.00644153,1724.90625,-41.406618099999996,-299.5065765
1354,1355,0.0389511,0.006443375,1724.90625,-46.277984599999996,-275.625
1355,1356,0.03871575,0.006396795,1724.90625,-51.14935299999999,-251.743416
1356,1357,0.038845950000000004,0.0063663650000000006,1724.90625,-56.0207195,-227.86183949999997
1357,1358,0.03874155,0.006343025,1724.90625,-60.89208599999999,-203.98026249999998
1358,1359,0.03889945,0.00632498,1724.90625,-65.7634525,-180.09868600000001
1359,1360,0.03893645,0.00637472,1724.90625,-70.634819,-156.2171095
1360,1361,0.039152450000000005,0.0064297650000000005,1724.90625,-75.50618739999999,-132.335529
1361,1362,0.0393911,0.006677845,1724.90625,-80.377552,-108.45394885000002
1362,1363,0.03964895,0.006964425,1724.90625,-85.2489166,-84.5723686
1363,1364,0.040083099999999997,0.0075926399999999995,1724.90625,-90.120285,-60.69078825
1364,1365,0.0366359,0.00181458,1699.802065,-2.43568468,-490.559204
1365,1366,0.0384719,0.0036652000000000004,1699.802065,-7.307051179999999,-466.67762749999997
1366,1367,0.0395371,0.005534415,1699.802065,-12.1784177,-442.796051
1367,1368,0.03974145,0.00630892,1699.802065,-17.049784199999998,-418.9144745
1368,1369,0.0401465,0.007131995,1699.802065,-21.9211502,-395.032898
1369,1370,0.039442450000000004,0.00716707,1699.802065,-26.7925167,-371.1513215
1370,1371,0.03956855,0.007204065,1699.802065,-31.6638832,-347.26974500000006
1371,1372,0.039004750000000005,0.00706385,1699.802065,-36.535251599999995,-323.388153
1372,1373,0.03905835,0.006898185,1699.802065,-41.406618099999996,-299.5065765
1373,1374,0.03869185,0.00672944,1699.802065,-46.277984599999996,-275.625
1374,1375,0.0387371,0.006529455,1699.802065,-51.14935299999999,-251.743416
1375,1376,0.03851695000000001,0.00636812,1699.802065,-56.0207195,-227.86183949999997
1376,1377,0.0385846,0.0061738850000000005,1699.802065,-60.89208599999999,-203.98026249999998
1377,1378,0.038491399999999995,0.00604074,1699.802065,-65.7634525,-180.09868600000001
1378,1379,0.0386286,0.005872485,1699.802065,-70.634819,-156.2171095
1379,1380,0.03871255,0.005837305,1699.802065,-75.50618739999999,-132.335529
1380,1381,0.0390037,0.005766665,1699.802065,-80.377552,-108.45394885000002
1381,1382,0.0394323,0.0060502,1699.802065,-85.2489166,-84.5723686
1382,1383,0.039861400000000005,0.00636258,1699.802065,-90.120285,-60.69078825
1383,1384,0.0393388,0.002688505,1674.6979350000001,-2.43568468,-490.559204
1384,1385,0.0406971,0.005262205,1674.6979350000001,-7.307051179999999,-466.67762749999997
1385,1386,0.04101255,0.006623555,1674.6979350000001,-12.1784177,-442.796051
1386,1387,0.04136895,0.008137455,1674.6979350000001,-17.049784199999998,-418.9144745
1387,1388,0.0399712,0.00814618,1674.6979350000001,-21.9211502,-395.032898
1388,1389,0.03997,0.00812212,1674.6979350000001,-26.7925167,-371.1513215
1389,1390,0.039144700000000004,0.007897725,1674.6979350000001,-31.6638832,-347.26974500000006
1390,1391,0.0390863,0.0075615349999999994,1674.6979350000001,-36.535251599999995,-323.388153
1391,1392,0.03860095,0.00729884,1674.6979350000001,-41.406618099999996,-299.5065765
1392,1393,0.038554149999999995,0.006935305,1674.6979350000001,-46.277984599999996,-275.625
1393,1394,0.038247199999999995,0.00667284,1674.6979350000001,-51.14935299999999,-251.743416
1394,1395,0.038220000000000004,0.006329085,1674.6979350000001,-56.0207195,-227.86183949999997
1395,1396,0.038022650000000005,0.00606989,1674.6979350000001,-60.89208599999999,-203.98026249999998
1396,1397,0.0380431,0.00574106,1674.6979350000001,-65.7634525,-180.09868600000001
1397,1398,0.03796315,0.005500415,1674.6979350000001,-70.634819,-156.2171095
1398,1399,0.0381272,0.005190025,1674.6979350000001,-75.50618739999999,-132.335529
1399,1400,0.03828395,0.0050646,1674.6979350000001,-80.377552,-108.45394885000002
1400,1401,0.038811899999999996,0.0048546349999999995,1674.6979350000001,-85.2489166,-84.5723686
1401,1402,0.039589700000000005,0.005248445,1674.6979350000001,-90.120285,-60.69078825
1402,1403,0.04213215,0.004000285,1649.59375,-2.43568468,-490.559204
1403,1404,0.04352035,0.00654405,1649.59375,-7.307051179999999,-466.67762749999997
1404,1405,0.043875700000000004,0.009457755,1649.59375,-12.1784177,-442.796051
1405,1406,0.0408429,0.009380945,1649.59375,-17.049784199999998,-418.9144745
1406,1407,0.04053615000000001,0.009175255,1649.59375,-21.9211502,-395.032898
1407,1408,0.03930155,0.00889065,1649.59375,-26.7925167,-371.1513215
1408,1409,0.039053950000000004,0.008350880000000001,1649.59375,-31.6638832,-347.26974500000006
1409,1410,0.038461050000000004,0.00802939,1649.59375,-36.535251599999995,-323.388153
1410,1411,0.0383002,0.007502745,1649.59375,-41.406618099999996,-299.5065765
1411,1412,0.03794675,0.00717656,1649.59375,-46.277984599999996,-275.625
1412,1413,0.0378276,0.006701835,1649.59375,-51.14935299999999,-251.743416
1413,1414,0.0375742,0.0063685,1649.59375,-56.0207195,-227.86183949999997
1414,1415,0.03748355,0.005924415000000001,1649.59375,-60.89208599999999,-203.98026249999998
1415,1416,0.03729545,0.005573355,1649.59375,-65.7634525,-180.09868600000001
1416,1417,0.03728425,0.005131235,1649.59375,-70.634819,-156.2171095
1417,1418,0.0372097,0.00476765,1649.59375,-75.50618739999999,-132.335529
1418,1419,0.037469249999999996,0.00431249,1649.59375,-80.377552,-108.45394885000002
1419,1420,0.03770845,0.004036055,1649.59375,-85.2489166,-84.5723686
1420,1421,0.038784700000000005,0.00361845,1649.59375,-90.120285,-60.69078825
1421,1422,0.0475469,0.00547468,1624.489565,-2.43568468,-490.559204
1422,1423,0.049050250000000004,0.011377749999999999,1624.489565,-7.307051179999999,-466.67762749999997
1423,1424,0.04250954999999999,0.0112088,1624.489565,-12.1784177,-442.796051
1424,1425,0.04134425,0.010306100000000002,1624.489565,-17.049784199999998,-418.9144745
1425,1426,0.039607,0.010019415,1624.489565,-21.9211502,-395.032898
1426,1427,0.0389799,0.00916963,1624.489565,-26.7925167,-371.1513215
1427,1428,0.038311700000000004,0.008839525,1624.489565,-31.6638832,-347.26974500000006
1428,1429,0.03797895,0.00814254,1624.489565,-36.535251599999995,-323.388153
1429,1430,0.037627400000000005,0.0077926,1624.489565,-41.406618099999996,-299.5065765
1430,1431,0.0374088,0.007201015,1624.489565,-46.277984599999996,-275.625
1431,1432,0.037152649999999995,0.0068344849999999995,1624.489565,-51.14935299999999,-251.743416
1432,1433,0.036971000000000004,0.0063027099999999996,1624.489565,-56.0207195,-227.86183949999997
1433,1434,0.0367428,0.005908405,1624.489565,-60.89208599999999,-203.98026249999998
1434,1435,0.03659235,0.005394665,1624.489565,-65.7634525,-180.09868600000001
1435,1436,0.03639755,0.004950645,1624.489565,-70.634819,-156.2171095
1436,1437,0.036366800000000005,0.0044154350000000005,1624.489565,-75.50618739999999,-132.335529
1437,1438,0.036292099999999994,0.003889185,1624.489565,-80.377552,-108.45394885000002
1438,1439,0.03671305,0.003291365,1624.489565,-85.2489166,-84.5723686
1439,1440,0.03701925,0.002675695,1624.489565,-90.120285,-60.69078825
1440,1441,0.058288599999999996,0.012435149999999999,1599.3854350000001,-2.43568468,-490.559204
1441,1442,0.0461795,0.014130550000000002,1599.3854350000001,-7.307051179999999,-466.67762749999997
1442,1443,0.04209435,0.0112418,1599.3854350000001,-12.1784177,-442.796051
1443,1444,0.040238449999999995,0.011191399999999999,1599.3854350000001,-17.049784199999998,-418.9144745
1444,1445,0.03883615,0.009883925,1599.3854350000001,-21.9211502,-395.032898
1445,1446,0.03821825,0.00962937,1599.3854350000001,-26.7925167,-371.1513215
1446,1447,0.037600499999999995,0.008759804999999999,1599.3854350000001,-31.6638832,-347.26974500000006
1447,1448,0.0373107,0.00843167,1599.3854350000001,-36.535251599999995,-323.388153
1448,1449,0.036961799999999996,0.0077407150000000004,1599.3854350000001,-41.406618099999996,-299.5065765
1449,1450,0.03675225,0.0073736,1599.3854350000001,-46.277984599999996,-275.625
1450,1451,0.0364891,0.0067735650000000005,1599.3854350000001,-51.14935299999999,-251.743416
1451,1452,0.03627885,0.00637331,1599.3854350000001,-56.0207195,-227.86183949999997
1452,1453,0.0360382,0.00581516,1599.3854350000001,-60.89208599999999,-203.98026249999998
1453,1454,0.0358137,0.005368090000000001,1599.3854350000001,-65.7634525,-180.09868600000001
1454,1455,0.035606,0.0048118150000000005,1599.3854350000001,-70.634819,-156.2171095
1455,1456,0.0354095,0.0042781550000000005,1599.3854350000001,-75.50618739999999,-132.335529
1456,1457,0.0353538,0.00368436,1599.3854350000001,-80.377552,-108.45394885000002
1457,1458,0.0353278,0.00295063,1599.3854350000001,-85.2489166,-84.5723686
1458,1459,0.03587825,0.002284625,1599.3854350000001,-90.120285,-60.69078825
1459,1460,0.040811900000000005,-0.0062952649999999995,1574.28125,-2.43568468,-490.559204
1460,1461,0.037901050000000006,-0.00490838,1574.28125,-7.307051179999999,-466.67762749999997
1461,1462,0.0393986,-0.00165722,1574.28125,-12.1784177,-442.796051
1462,1463,0.040174549999999996,0.0001030455,1574.28125,-17.049784199999998,-418.9144745
1463,1464,0.04126755,0.00180402,1574.28125,-21.9211502,-395.032898
1464,1465,0.041943850000000005,0.00316863,1574.28125,-26.7925167,-371.1513215
1465,1466,0.04243425000000001,0.004147349999999999,1574.28125,-31.6638832,-347.26974500000006
1466,1467,0.04281175,0.005077015000000001,1574.28125,-36.535251599999995,-323.388153
1467,1468,0.04296145,0.005696395,1574.28125,-41.406618099999996,-299.5065765
1468,1469,0.043107400000000004,0.006330924999999999,1574.28125,-46.277984599999996,-275.625
1469,1470,0.0430947,0.006797985,1574.28125,-51.14935299999999,-251.743416
1470,1471,0.0430957,0.007295235000000001,1574.28125,-56.0207195,-227.86183949999997
1471,1472,0.0430064,0.007740945,1574.28125,-60.89208599999999,-203.98026249999998
1472,1473,0.04293025,0.008234044999999999,1574.28125,-65.7634525,-180.09868600000001
1473,1474,0.0428188,0.008767625000000001,1574.28125,-70.634819,-156.2171095
1474,1475,0.0427182,0.009391855000000001,1574.28125,-75.50618739999999,-132.335529
1475,1476,0.04263035,0.010120549999999999,1574.28125,-80.377552,-108.45394885000002
1476,1477,0.04256525,0.011048249999999999,1574.28125,-85.2489166,-84.5723686
1477,1478,0.042551649999999996,0.012060000000000001,1574.28125,-90.120285,-60.69078825
1478,1479,0.038588750000000005,-0.00099208,1549.177065,-2.43568468,-490.559204
1479,1480,0.0431595,-0.001913615,1549.177065,-7.307051179999999,-466.67762749999997
1480,1481,0.04182405,-5.904695e-05,1549.177065,-12.1784177,-442.796051
1481,1482,0.0433307,0.001438625,1549.177065,-17.049784199999998,-418.9144745
1482,1483,0.043377,0.002892515,1549.177065,-21.9211502,-395.032898
1483,1484,0.0437904,0.0038359400000000004,1549.177065,-26.7925167,-371.1513215
1484,1485,0.04391515,0.00479534,1549.177065,-31.6638832,-347.26974500000006
1485,1486,0.0438905,0.0053745600000000004,1549.177065,-36.535251599999995,-323.388153
1486,1487,0.043932599999999995,0.0059848850000000006,1549.177065,-41.406618099999996,-299.5065765
1487,1488,0.043795650000000005,0.006395255,1549.177065,-46.277984599999996,-275.625
1488,1489,0.04376035,0.00683199,1549.177065,-51.14935299999999,-251.743416
1489,1490,0.043605450000000004,0.00718619,1549.177065,-56.0207195,-227.86183949999997
1490,1491,0.0435297,0.007568585,1549.177065,-60.89208599999999,-203.98026249999998
1491,1492,0.04339785,0.00795363,1549.177065,-65.7634525,-180.09868600000001
1492,1493,0.04331775,0.008381205,1549.177065,-70.634819,-156.2171095
1493,1494,0.043257699999999996,0.008891545,1549.177065,-75.50618739999999,-132.335529
1494,1495,0.04318885,0.00948289,1549.177065,-80.377552,-108.45394885000002
1495,1496,0.0432608,0.010222849999999999,1549.177065,-85.2489166,-84.5723686
1496,1497,0.04318335,0.01112665,1549.177065,-90.120285,-60.69078825
1497,1498,0.03958645,0.00023180199999999997,1524.0729350000001,-2.43568468,-490.559204
1498,1499,0.0434474,0.00202261,1524.0729350000001,-7.307051179999999,-466.67762749999997
1499,1500,0.0455567,0.00193818,1524.0729350000001,-12.1784177,-442.796051
1500,1501,0.045182900000000005,0.00360191,1524.0729350000001,-17.049784199999998,-418.9144745
1501,1502,0.045548099999999994,0.004182375,1524.0729350000001,-21.9211502,-395.032898
1502,1503,0.04535535,0.005179915,1524.0729350000001,-26.7925167,-371.1513215
1503,1504,0.04507705,0.00554819,1524.0729350000001,-31.6638832,-347.26974500000006
1504,1505,0.0449398,0.00606368,1524.0729350000001,-36.535251599999995,-323.388153
1505,1506,0.0446105,0.00632902,1524.0729350000001,-41.406618099999996,-299.5065765
1506,1507,0.04447055,0.0066460600000000005,1524.0729350000001,-46.277984599999996,-275.625
1507,1508,0.0441882,0.00686998,1524.0729350000001,-51.14935299999999,-251.743416
1508,1509,0.044047550000000005,0.00711548,1524.0729350000001,-56.0207195,-227.86183949999997
1509,1510,0.0438239,0.00734197,1524.0729350000001,-60.89208599999999,-203.98026249999998
1510,1511,0.0437018,0.00758259,1524.0729350000001,-65.7634525,-180.09868600000001
1511,1512,0.043559650000000005,0.007868735,1524.0729350000001,-70.634819,-156.2171095
1512,1513,0.04347485,0.00816744,1524.0729350000001,-75.50618739999999,-132.335529
1513,1514,0.0434798,0.00861171,1524.0729350000001,-80.377552,-108.45394885000002
1514,1515,0.04340995,0.00907629,1524.0729350000001,-85.2489166,-84.5723686
1515,1516,0.04359475,0.00979373,1524.0729350000001,-90.120285,-60.69078825
1516,1517,0.041812749999999996,0.00161275,1498.96875,-2.43568468,-490.559204
1517,1518,0.04514805,0.00315349,1498.96875,-7.307051179999999,-466.67762749999997
1518,1519,0.04698445,0.005162385,1498.96875,-12.1784177,-442.796051
1519,1520,0.0472664,0.005179985,1498.96875,-17.049784199999998,-418.9144745
1520,1521,0.04706385,0.006360225000000001,1498.96875,-21.9211502,-395.032898
1521,1522,0.04634275,0.00632443,1498.96875,-26.7925167,-371.1513215
1522,1523,0.046056200000000005,0.0066999,1498.96875,-31.6638832,-347.26974500000006
1523,1524,0.0454681,0.006712295,1498.96875,-36.535251599999995,-323.388153
1524,1525,0.0452018,0.006850419999999999,1498.96875,-41.406618099999996,-299.5065765
1525,1526,0.044761800000000004,0.006895335000000001,1498.96875,-46.277984599999996,-275.625
1526,1527,0.0445223,0.006973745,1498.96875,-51.14935299999999,-251.743416
1527,1528,0.0441792,0.007034820000000001,1498.96875,-56.0207195,-227.86183949999997
1528,1529,0.04397184999999999,0.00710003,1498.96875,-60.89208599999999,-203.98026249999998
1529,1530,0.043706300000000003,0.00718254,1498.96875,-65.7634525,-180.09868600000001
1530,1531,0.04354815,0.00725098,1498.96875,-70.634819,-156.2171095
1531,1532,0.04338745,0.00739902,1498.96875,-75.50618739999999,-132.335529
1532,1533,0.04330895,0.007504655,1498.96875,-80.377552,-108.45394885000002
1533,1534,0.04335075,0.007853140000000002,1498.96875,-85.2489166,-84.5723686
1534,1535,0.04332225,0.008163130000000001,1498.96875,-90.120285,-60.69078825
1535,1536,0.04465714999999999,0.00268219,1473.864565,-2.43568468,-490.559204
1536,1537,0.04751615,0.005570435,1473.864565,-7.307051179999999,-466.67762749999997
1537,1538,0.04841105,0.006480235,1473.864565,-12.1784177,-442.796051
1538,1539,0.04904175,0.00822216,1473.864565,-17.049784199999998,-418.9144745
1539,1540,0.0474427,0.007722115,1473.864565,-21.9211502,-395.032898
1540,1541,0.0471801,0.007910205,1473.864565,-26.7925167,-371.1513215
1541,1542,0.04622760000000001,0.007583085,1473.864565,-31.6638832,-347.26974500000006
1542,1543,0.045871449999999994,0.00748214,1473.864565,-36.535251599999995,-323.388153
1543,1544,0.04526555,0.00730068,1473.864565,-41.406618099999996,-299.5065765
1544,1545,0.044929949999999996,0.007178455,1473.864565,-46.277984599999996,-275.625
1545,1546,0.0444753,0.007065035,1473.864565,-51.14935299999999,-251.743416
1546,1547,0.04417145,0.0069574500000000004,1473.864565,-56.0207195,-227.86183949999997
1547,1548,0.04379134999999999,0.006865995,1473.864565,-60.89208599999999,-203.98026249999998
1548,1549,0.04352589999999999,0.006756155,1473.864565,-65.7634525,-180.09868600000001
1549,1550,0.043201500000000004,0.006670775,1473.864565,-70.634819,-156.2171095
1550,1551,0.043011049999999995,0.006537075,1473.864565,-75.50618739999999,-132.335529
1551,1552,0.04278275,0.006497424999999999,1473.864565,-80.377552,-108.45394885000002
1552,1553,0.0427776,0.00636508,1473.864565,-85.2489166,-84.5723686
1553,1554,0.04284475,0.00660253,1473.864565,-90.120285,-60.69078825
1554,1555,0.04787245,0.00434136,1448.7604350000001,-2.43568468,-490.559204
1555,1556,0.05034405,0.006977580000000001,1448.7604350000001,-7.307051179999999,-466.67762749999997
1556,1557,0.0515547,0.01028505,1448.7604350000001,-12.1784177,-442.796051
1557,1558,0.04829365,0.009687205,1448.7604350000001,-17.049784199999998,-418.9144745
1558,1559,0.0481906,0.00954112,1448.7604350000001,-21.9211502,-395.032898
1559,1560,0.04674785,0.00890124,1448.7604350000001,-26.7925167,-371.1513215
1560,1561,0.04636025,0.00848186,1448.7604350000001,-31.6638832,-347.26974500000006
1561,1562,0.0456021,0.008059420000000001,1448.7604350000001,-36.535251599999995,-323.388153
1562,1563,0.04520235,0.007702965,1448.7604350000001,-41.406618099999996,-299.5065765
1563,1564,0.04467235,0.007411075,1448.7604350000001,-46.277984599999996,-275.625
1564,1565,0.04429145,0.007127079999999999,1448.7604350000001,-51.14935299999999,-251.743416
1565,1566,0.043835650000000004,0.00688687,1448.7604350000001,-56.0207195,-227.86183949999997
1566,1567,0.043470800000000004,0.00663068,1448.7604350000001,-60.89208599999999,-203.98026249999998
1567,1568,0.0430337,0.006385544999999999,1448.7604350000001,-65.7634525,-180.09868600000001
1568,1569,0.04269755,0.006103845,1448.7604350000001,-70.634819,-156.2171095
1569,1570,0.0422657,0.005815915,1448.7604350000001,-75.50618739999999,-132.335529
1570,1571,0.042049249999999996,0.005462855,1448.7604350000001,-80.377552,-108.45394885000002
1571,1572,0.04168725,0.005154775,1448.7604350000001,-85.2489166,-84.5723686
1572,1573,0.0419132,0.0047442100000000004,1448.7604350000001,-90.120285,-60.69078825
1573,1574,0.053894649999999995,0.0060303449999999995,1423.65625,-2.43568468,-490.559204
1574,1575,0.05658485,0.0127567,1423.65625,-7.307051179999999,-466.67762749999997
1575,1576,0.0495816,0.01223375,1423.65625,-12.1784177,-442.796051
1576,1577,0.0489284,0.0112457,1423.65625,-17.049784199999998,-418.9144745
1577,1578,0.0470236,0.010537850000000001,1423.65625,-21.9211502,-395.032898
1578,1579,0.04652175,0.009673919999999999,1423.65625,-26.7925167,-371.1513215
1579,1580,0.04568725,0.00907369,1423.65625,-31.6638832,-347.26974500000006
1580,1581,0.04524550000000001,0.008452995,1423.65625,-36.535251599999995,-323.388153
1581,1582,0.04470535,0.008000344999999999,1423.65625,-41.406618099999996,-299.5065765
1582,1583,0.04428425,0.007538464999999999,1423.65625,-46.277984599999996,-275.625
1583,1584,0.043810749999999996,0.0071716,1423.65625,-51.14935299999999,-251.743416
1584,1585,0.04338425,0.00678828,1423.65625,-56.0207195,-227.86183949999997
1585,1586,0.042899,0.006437770000000001,1423.65625,-60.89208599999999,-203.98026249999998
1586,1587,0.0424528,0.00605989,1423.65625,-65.7634525,-180.09868600000001
1587,1588,0.04191835000000001,0.005655335,1423.65625,-70.634819,-156.2171095
1588,1589,0.04147835,0.00521368,1423.65625,-75.50618739999999,-132.335529
1589,1590,0.0408873,0.00467676,1423.65625,-80.377552,-108.45394885000002
1590,1591,0.040633550000000004,0.0041089049999999995,1423.65625,-85.2489166,-84.5723686
1591,1592,0.04009365,0.0033810949999999998,1423.65625,-90.120285,-60.69078825
1592,1593,0.06616405,0.014116749999999997,1398.552065,-2.435684085,-490.559204
1593,1594,0.053072049999999996,0.01591235,1398.552065,-7.307050825,-466.67762749999997
1594,1595,0.0492247,0.01265175,1398.552065,-12.178417465,-442.796051
1595,1596,0.047358800000000006,0.012248,1398.552065,-17.049784199999998,-418.9144745
1596,1597,0.04621815,0.010790300000000001,1398.552065,-21.921150675,-395.032898
1597,1598,0.04551715,0.010165750000000001,1398.552065,-26.792517175,-371.1513215
1598,1599,0.0449645,0.009271229999999998,1398.552065,-31.663883675,-347.26974500000006
1599,1600,0.04451355,0.00870664,1398.552065,-36.535251599999995,-323.388153
1600,1601,0.04408155,0.008078035,1398.552065,-41.406618099999996,-299.5065765
1601,1602,0.0436618,0.00761097,1398.552065,-46.277984599999996,-275.625
1602,1603,0.0432246,0.007119475,1398.552065,-51.14935299999999,-251.743416
1603,1604,0.0427586,0.0067004000000000005,1398.552065,-56.0207195,-227.86183949999997
1604,1605,0.0422665,0.006257,1398.552065,-60.89208599999999,-203.98026249999998
1605,1606,0.041713799999999995,0.005812355,1398.552065,-65.7634525,-180.09868600000001
1606,1607,0.04114625,0.00533986,1398.552065,-70.634819,-156.2171095
1607,1608,0.040482649999999995,0.004777205,1398.552065,-75.50618739999999,-132.335529
1608,1609,0.0398743,0.00420536,1398.552065,-80.377553925,-108.45394885000002
1609,1610,0.03912775,0.0033780750000000003,1398.552065,-85.248918525,-84.5723686
1610,1611,0.038740949999999996,0.002645085,1398.552065,-90.120285,-60.69078825
1611,1612,0.0006115665,0.000324647,2602.666625,95.0419769,-36.5625
1612,1613,0.000703593,0.000146195,2602.666625,100.01399229999998,-12.1875
1613,1614,0.0007253540000000001,0.000397263,2626.0,95.0419769,-36.5625
1614,1615,0.000282535,9.0263e-05,2626.0,100.01399229999998,-12.1875
1615,1616,0.000601877,0.0003074585,2649.333375,95.0419769,-36.5625
1616,1617,0.00029216599999999995,0.000120807,2649.333375,100.01399229999998,-12.1875
1617,1618,0.011363149999999999,0.0065173850000000005,2578.447875,-95.0419769,-36.5625
1618,1619,0.0157118,0.008198275000000001,2578.447875,-100.01399229999998,-12.1875
1619,1620,0.01088345,0.00626596,2553.34375,-95.0419769,-36.5625
1620,1621,0.01660795,0.00943815,2553.34375,-100.01399229999998,-12.1875
1621,1622,0.01247,0.007054305,2528.239625,-95.0419769,-36.5625
1622,1623,0.0167968,0.009666305,2528.239625,-100.01399229999998,-12.1875
1623,1624,0.013202700000000001,0.007097785,2503.135375,-95.0419769,-36.5625
1624,1625,0.0173305,0.00970711,2503.135375,-100.01399229999998,-12.1875
1625,1626,0.0136691,0.0068498199999999995,2478.03125,-95.0419769,-36.5625
1626,1627,0.0180501,0.00948496,2478.03125,-100.01399229999998,-12.1875
1627,1628,0.0141926,0.00634613,2452.927125,-95.0419769,-36.5625
1628,1629,0.01857925,0.00888919,2452.927125,-100.01399229999998,-12.1875
1629,1630,0.013630650000000001,0.005026285,2427.822875,-95.0419769,-36.5625
1630,1631,0.01962855,0.00803028,2427.822875,-100.01399229999998,-12.1875
1631,1632,0.013070499999999999,0.004934155,2402.71875,-95.0419769,-36.5625
1632,1633,0.0205812,0.006343405,2402.71875,-100.01399229999998,-12.1875
1633,1634,0.0193838,0.009241435,2377.614625,-95.0419769,-36.5625
1634,1635,0.0194736,0.0107884,2377.614625,-100.01399229999998,-12.1875
1635,1636,0.01912325,0.008725415,2352.510375,-95.0419769,-36.5625
1636,1637,0.0218622,0.01151605,2352.510375,-100.01399229999998,-12.1875
1637,1638,0.02067185,0.00901425,2327.40625,-95.0419769,-36.5625
1638,1639,0.02283765,0.01110475,2327.40625,-100.01399229999998,-12.1875
1639,1640,0.021717200000000002,0.0086728,2302.302125,-95.0419769,-36.5625
1640,1641,0.023768400000000002,0.010778900000000001,2302.302125,-100.01399229999998,-12.1875
1641,1642,0.0225131,0.008283829999999999,2277.197875,-95.0419769,-36.5625
1642,1643,0.02477525,0.010246749999999999,2277.197875,-100.01399229999998,-12.1875
1643,1644,0.0234218,0.007737245,2252.09375,-95.0419769,-36.5625
1644,1645,0.02557425,0.00967148,2252.09375,-100.01399229999998,-12.1875
1645,1646,0.02388875,0.006877575,2226.989625,-95.0419769,-36.5625
1646,1647,0.026824300000000002,0.009031305,2226.989625,-100.01399229999998,-12.1875
1647,1648,0.02445825,0.00590953,2201.885375,-95.0419769,-36.5625
1648,1649,0.02759735,0.00784605,2201.885375,-100.01399229999998,-12.1875
1649,1650,0.0241309,0.004107375,2176.78125,-95.0419769,-36.5625
1650,1651,0.0284808,0.006394779999999999,2176.78125,-100.01399229999998,-12.1875
1651,1652,0.022351450000000002,0.003628935,2151.677125,-95.0419769,-36.5625
1652,1653,0.029594500000000003,0.004353055,2151.677125,-100.01399229999998,-12.1875
1653,1654,0.0295498,0.011693849999999999,2126.572875,-95.0419769,-36.5625
1654,1655,0.0288957,0.013231199999999999,2126.572875,-100.01399229999998,-12.1875
1655,1656,0.0298502,0.010975100000000002,2101.46875,-95.0419769,-36.5625
1656,1657,0.03111695,0.01332065,2101.46875,-100.01399229999998,-12.1875
1657,1658,0.03098285,0.0106117,2076.364625,-95.0419769,-36.5625
1658,1659,0.0320419,0.0122905,2076.364625,-100.01399229999998,-12.1875
1659,1660,0.03175045,0.00988383,2051.260435,-95.0419769,-36.5625
1660,1661,0.03263125,0.011420350000000001,2051.260435,-100.01399229999998,-12.1875
1661,1662,0.03247675,0.009181499999999999,2026.15625,-95.0419769,-36.5625
1662,1663,0.03331195,0.010639899999999999,2026.15625,-100.01399229999998,-12.1875
1663,1664,0.032935,0.008333219999999999,2001.052065,-95.0419769,-36.5625
1664,1665,0.0341495,0.009863710000000001,2001.052065,-100.01399229999998,-12.1875
1665,1666,0.03357155,0.00751597,1975.9479350000001,-95.0419769,-36.5625
1666,1667,0.0347336,0.0089271,1975.9479350000001,-100.01399229999998,-12.1875
1667,1668,0.03378515,0.00627004,1950.84375,-95.0419769,-36.5625
1668,1669,0.0356895,0.008000420000000001,1950.84375,-100.01399229999998,-12.1875
1669,1670,0.0339758,0.005008265,1925.739565,-95.0419769,-36.5625
1670,1671,0.036259299999999994,0.006379895,1925.739565,-100.01399229999998,-12.1875
1671,1672,0.033446050000000005,0.002874565,1900.6354350000001,-95.0419769,-36.5625
1672,1673,0.03651020000000001,0.004478960000000001,1900.6354350000001,-100.01399229999998,-12.1875
1673,1674,0.0309477,0.00209512,1875.53125,-95.0419769,-36.5625
1674,1675,0.037161849999999996,0.0021963300000000002,1875.53125,-100.01399229999998,-12.1875
1675,1676,0.038102300000000006,0.0135687,1850.427065,-95.0419769,-36.5625
1676,1677,0.03785635,0.01502505,1850.427065,-100.01399229999998,-12.1875
1677,1678,0.038775950000000003,0.0126132,1825.3229350000001,-95.0419769,-36.5625
1678,1679,0.0395368,0.014564299999999999,1825.3229350000001,-100.01399229999998,-12.1875
1679,1680,0.03946745,0.011670199999999999,1800.21875,-95.0419769,-36.5625
1680,1681,0.040047650000000004,0.012922900000000001,1800.21875,-100.01399229999998,-12.1875
1681,1682,0.039869150000000006,0.010536199999999999,1775.114565,-95.0419769,-36.5625
1682,1683,0.0400869,0.0115736,1775.114565,-100.01399229999998,-12.1875
1683,1684,0.04020715,0.009456795,1750.0104350000001,-95.0419769,-36.5625
1684,1685,0.0402869,0.01046435,1750.0104350000001,-100.01399229999998,-12.1875
1685,1686,0.0402768,0.00831743,1724.90625,-95.0419769,-36.5625
1686,1687,0.0407174,0.00939219,1724.90625,-100.01399229999998,-12.1875
1687,1688,0.0405523,0.007229655,1699.802065,-95.0419769,-36.5625
1688,1689,0.040849250000000004,0.008178544999999999,1699.802065,-100.01399229999998,-12.1875
1689,1690,0.04038955,0.00572459,1674.6979350000001,-95.0419769,-36.5625
1690,1691,0.041388949999999994,0.00700164,1674.6979350000001,-100.01399229999998,-12.1875
1691,1692,0.040157700000000005,0.00423598,1649.59375,-95.0419769,-36.5625
1692,1693,0.0415435,0.00506627,1649.59375,-100.01399229999998,-12.1875
1693,1694,0.03930965,0.00194867,1624.489565,-95.0419769,-36.5625
1694,1695,0.041160249999999995,0.00287719,1624.489565,-100.01399229999998,-12.1875
1695,1696,0.03649735,0.0009046065,1599.3854350000001,-95.0419769,-36.5625
1696,1697,0.04115885,0.0004899749,1599.3854350000001,-100.01399229999998,-12.1875
1697,1698,0.04267935,0.013589450000000001,1574.28125,-95.0419769,-36.5625
1698,1699,0.04264005,0.01489755,1574.28125,-100.01399229999998,-12.1875
1699,1700,0.0434638,0.012198,1549.177065,-95.0419769,-36.5625
1700,1701,0.043730399999999996,0.013881000000000001,1549.177065,-100.01399229999998,-12.1875
1701,1702,0.04350855,0.01058085,1524.0729350000001,-95.0419769,-36.5625
1702,1703,0.0438931,0.0114938,1524.0729350000001,-100.01399229999998,-12.1875
1703,1704,0.04346,0.008804795,1498.96875,-95.0419769,-36.5625
1704,1705,0.04318535,0.00943529,1498.96875,-100.01399229999998,-12.1875
1705,1706,0.042899950000000006,0.006857705,1473.864565,-95.0419769,-36.5625
1706,1707,0.0429827,0.007596435,1473.864565,-100.01399229999998,-12.1875
1707,1708,0.04214515,0.004949325,1448.7604350000001,-95.0419769,-36.5625
1708,1709,0.04243665,0.00527287,1448.7604350000001,-100.01399229999998,-12.1875
1709,1710,0.040963,0.00260868,1423.65625,-95.0419769,-36.5625
1710,1711,0.04121485,0.002759025,1423.65625,-100.01399229999998,-12.1875
1711,1712,0.038162850000000005,0.001151305,1398.552065,-95.0419769,-36.5625
1712,1713,0.040355550000000004,0.00040381855000000004,1398.552065,-100.01399229999998,-12.1875
1713,1714,0.001167605,-0.0006731105,2602.666625,13.2644758,100.75370025000001
1714,1715,0.00119431,-0.000689238,2626.0,13.2644758,100.75370025000001
1715,1716,0.00117233,-0.0006764920000000001,2649.333375,13.2644758,100.75370025000001
1716,1717,0.0010751250000000001,-0.000613699,2602.666625,38.8894758,93.88750075
1717,1718,0.00109894,-0.0006319865,2626.0,38.8894758,93.88750075
1718,1719,0.00107427,-0.0006191175,2649.333375,38.8894758,93.88750075
1719,1720,0.0009109455,-0.0005047885000000001,2602.666625,61.86422350000001,80.623024
1720,1721,0.0009070635,-0.0005155419999999999,2626.0,61.86422350000001,80.623024
1721,1722,0.0008830795,-0.0005065905,2649.333375,61.86422350000001,80.623024
1722,1723,0.0006964454999999999,-0.00035768150000000005,2602.666625,80.623024,61.8642235
1723,1724,0.000653132,-0.00035834349999999996,2626.0,80.623024,61.8642235
1724,1725,0.0006330655,-0.0003586905,2649.333375,80.623024,61.8642235
1725,1726,0.00041920200000000003,-0.00012409299999999998,2602.666625,93.88750075,38.8894758
1726,1727,0.0004466125,-0.0002181045,2626.0,93.88750075,38.8894758
1727,1728,0.00031924899999999997,-0.0001412865,2649.333375,93.88750075,38.8894758
1728,1729,0.0008266975,0.0002171315,2602.666625,100.75370025000001,13.2644758
1729,1730,0.000571864,0.000300572,2626.0,100.75370025000001,13.2644758
1730,1731,0.0003921395,0.00016301850000000002,2649.333375,100.75370025000001,13.2644758
1731,2140,0.000703593,0.000146195,2602.666625,-100.0139923,-12.1875
1732,2141,0.0006115665,0.000324647,2602.666625,-95.04197690000001,-36.5625
1733,2142,0.000282535,9.0263e-05,2626.0,-100.0139923,-12.1875
1734,2143,0.0007253540000000001,0.000397263,2626.0,-95.04197690000001,-36.5625
1735,2144,0.00029216599999999995,0.000120807,2649.333375,-100.0139923,-12.1875
1736,2145,0.000601877,0.0003074585,2649.333375,-95.04197690000001,-36.5625
1737,2146,0.046753600000000006,-0.02590165,1223.5,13.2644758,100.75370025000001
1738,2147,0.0463673,-0.026611250000000003,1248.5,13.2644758,100.75370025000001
1739,2148,0.047001150000000005,-0.02619995,1273.5,13.2644758,100.75370025000001
1740,2149,0.05302,-0.026675349999999997,1298.5,13.2644758,100.75370025000001
1741,2150,0.055872,-0.025660299999999997,1323.5,13.2644758,100.75370025000001
1742,2151,0.05083155,-0.024674050000000003,1348.5,13.2644758,100.75370025000001
1743,2152,0.0527051,-0.0211502,1373.5,13.2644758,100.75370025000001
1744,2153,0.02532695,-0.01168405,1223.5,38.8894758,93.88750075
1745,2154,0.0212452,-0.0117821,1248.5,38.8894758,93.88750075
1746,2155,0.0261686,-0.01228345,1273.5,38.8894758,93.88750075
1747,2156,0.03728935,-0.011916,1298.5,38.8894758,93.88750075
1748,2157,0.04493069999999999,-0.01138625,1323.5,38.8894758,93.88750075
1749,2158,0.04085725,-0.010421449999999999,1348.5,38.8894758,93.88750075
1750,2159,0.05088535,-0.007007575,1373.5,38.8894758,93.88750075
1751,2160,0.017450415,0.00497761,1223.5,61.86422350000001,80.623024
1752,2161,0.01048965,0.00456464,1248.5,61.86422350000001,80.623024
1753,2162,0.019821400000000003,0.0055948000000000005,1273.5,61.86422350000001,80.623024
1754,2163,0.0365046,0.00425448,1298.5,61.86422350000001,80.623024
1755,2164,0.045322850000000005,0.004838375,1323.5,61.86422350000001,80.623024
1756,2165,0.04644735,0.00602528,1348.5,61.86422350000001,80.623024
1757,2166,0.0601999,0.008253805,1373.5,61.86422350000001,80.623024
1758,2167,0.04443775,0.0234356,1223.5,80.623024,61.8642235
1759,2168,0.042053049999999995,0.0238031,1248.5,80.623024,61.8642235
1760,2169,0.0420916,0.0217959,1273.5,80.623024,61.8642235
1761,2170,0.05508875,0.0236738,1298.5,80.623024,61.8642235
1762,2171,0.06460275,0.0237226,1323.5,80.623024,61.8642235
1763,2172,0.06569755,0.02423885,1348.5,80.623024,61.8642235
1764,2173,0.08038719999999999,0.02594785,1373.5,80.623024,61.8642235
1765,2174,0.07834525,0.043714699999999995,1223.5,93.88750075,38.8894758
1766,2175,0.0719814,0.0411447,1248.5,93.88750075,38.8894758
1767,2176,0.08078625,0.045399300000000004,1273.5,93.88750075,38.8894758
1768,2177,0.08625959999999999,0.04227045,1298.5,93.88750075,38.8894758
1769,2178,0.09519685,0.04544085,1323.5,93.88750075,38.8894758
1770,2179,0.08897235,0.0383937,1348.5,93.88750075,38.8894758
1771,2180,0.0939938,0.039090349999999996,1373.5,93.88750075,38.8894758
1772,2181,0.11709499999999999,0.0639067,1223.5,100.75370025000001,13.2644758
1773,2182,0.1237925,0.07117255,1248.5,100.75370025000001,13.2644758
1774,2183,0.1182395,0.06748805,1273.5,100.75370025000001,13.2644758
1775,2184,0.1361935,0.0739546,1298.5,100.75370025000001,13.2644758
1776,2185,0.139903,0.06851445,1323.5,100.75370025000001,13.2644758
1777,2186,0.12213449999999998,0.0657377,1348.5,100.75370025000001,13.2644758
1778,2187,0.13665349999999998,0.06365685,1373.5,100.75370025000001,13.2644758
1779,2188,0.131896,0.0630213,1373.5,100.0139923,-12.1875
1780,2189,0.13858949999999998,0.0744978,1373.5,95.04197690000001,-36.5625
1781,2190,0.116063,0.061966400000000005,1348.5,100.0139923,-12.1875
1782,2191,0.14332999999999999,0.0755641,1348.5,95.04197690000001,-36.5625
1783,2192,0.11929499999999998,0.05912775000000001,1323.5,100.0139923,-12.1875
1784,2193,0.12546600000000002,0.07098085000000001,1323.5,95.04197690000001,-36.5625
1785,2194,0.1055635,0.0567135,1298.5,100.0139923,-12.1875
1786,2195,0.1282615,0.0726249,1298.5,95.04197690000001,-36.5625
1787,2196,0.092,0.0522084,1273.5,100.0139923,-12.1875
1788,2197,0.12170900000000001,0.06967655,1273.5,95.04197690000001,-36.5625
1789,2198,0.09605794999999999,0.05532575,1248.5,100.0139923,-12.1875
1790,2199,0.1236865,0.0712739,1248.5,95.04197690000001,-36.5625
1791,2200,0.10241449999999999,0.05680565,1223.5,100.0139923,-12.1875
1792,2201,0.11998299999999999,0.0690863,1223.5,95.04197690000001,-36.5625
1793,2202,0.0006433090000000001,0.000346658,2602.666625,-90.120285,-60.690788250000004
1794,2203,0.0006337504999999999,0.0003386535,2602.666625,-85.248918525,-84.5723686
1795,2204,0.000624199,0.0003359315,2602.666625,-80.377553925,-108.45394885000002
1796,2205,0.000623719,0.0003361255,2602.666625,-75.50618739999999,-132.335529
1797,2206,0.0006193625,0.000335614,2602.666625,-70.634819,-156.2171095
1798,2207,0.000618667,0.00033561,2602.666625,-65.7634525,-180.098686
1799,2208,0.000616288,0.000335487,2602.666625,-60.892086,-203.9802625
1800,2209,0.000615697,0.00033549199999999995,2602.666625,-56.0207195,-227.86183949999997
1801,2210,0.000614445,0.0003354625,2602.666625,-51.14935299999999,-251.74341599999997
1802,2211,0.0006141440000000001,0.00033546499999999996,2602.666625,-46.277984599999996,-275.625
1803,2212,0.0006136045,0.0003354585,2602.666625,-41.406618099999996,-299.5065765
1804,2213,0.000613797,0.00033545950000000004,2602.666625,-36.535251599999995,-323.388153
1805,2214,0.000613726,0.00033545949999999993,2602.666625,-31.663883674999997,-347.269745
1806,2215,0.0006146115,0.0003354725,2602.666625,-26.792517174999997,-371.1513215
1807,2216,0.0006147889999999999,0.000335454,2602.666625,-21.921150674999996,-395.032898
1808,2217,0.0006159774999999999,0.0003352055,2602.666625,-17.049784199999998,-418.9144745
1809,2218,0.0006184459999999999,0.000336403,2602.666625,-12.178417465,-442.796051
1810,2219,0.000633064,0.0003437865,2602.666625,-7.307050824999999,-466.67762749999997
1811,2220,0.0005609244999999999,0.000293958,2602.666625,-2.435684085,-490.559204
1812,2221,0.0006311655,0.00034367999999999996,2626.0,-90.120285,-60.690788250000004
1813,2222,0.0006188789999999999,0.000337871,2626.0,-85.2489166,-84.5723686
1814,2223,0.000617833,0.0003397945,2626.0,-80.377552,-108.45394885000002
1815,2224,0.000614828,0.0003398835,2626.0,-75.50618739999999,-132.335529
1816,2225,0.000611399,0.000339823,2626.0,-70.634819,-156.2171095
1817,2226,0.000608459,0.0003398225,2626.0,-65.7634525,-180.098686
1818,2227,0.000605641,0.0003398245,2626.0,-60.892086,-203.9802625
1819,2228,0.0006030635,0.0003398245,2626.0,-56.0207195,-227.86183949999997
1820,2229,0.000600675,0.00033982449999999997,2626.0,-51.14935299999999,-251.74341599999997
1821,2230,0.0005985035,0.00033982449999999997,2626.0,-46.277984599999996,-275.625
1822,2231,0.0005965395,0.000339824,2626.0,-41.406618099999996,-299.5065765
1823,2232,0.0005947895,0.0003398245,2626.0,-36.535251599999995,-323.388153
1824,2233,0.0005932495000000001,0.00033982200000000004,2626.0,-31.6638832,-347.269745
1825,2234,0.0005919370000000001,0.00033982650000000006,2626.0,-26.7925167,-371.1513215
1826,2235,0.000590954,0.000339895,2626.0,-21.9211502,-395.032898
1827,2236,0.0005896585,0.00033965600000000003,2626.0,-17.049784199999998,-418.9144745
1828,2237,0.0005855599999999999,0.0003376705,2626.0,-12.1784177,-442.796051
1829,2238,0.0006041200000000001,0.000348648,2626.0,-7.30705118,-466.67762749999997
1830,2239,0.0006913635000000001,0.0003991345,2626.0,-2.43568468,-490.559204
1831,2240,0.000652885,0.000348029,2649.333375,-90.120285,-60.690788250000004
1832,2241,0.0006361795000000001,0.000341017,2649.333375,-85.248918525,-84.5723686
1833,2242,0.0006349815,0.0003426575,2649.333375,-80.377553925,-108.45394885000002
1834,2243,0.0006342165000000001,0.000342954,2649.333375,-75.50618739999999,-132.335529
1835,2244,0.0006320634999999999,0.000343476,2649.333375,-70.634819,-156.2171095
1836,2245,0.00063093,0.0003434655,2649.333375,-65.7634525,-180.098686
1837,2246,0.000629219,0.0003435885,2649.333375,-60.892086,-203.9802625
1838,2247,0.000628394,0.00034358399999999997,2649.333375,-56.0207195,-227.86183949999997
1839,2248,0.00062731,0.000343613,2649.333375,-51.14935299999999,-251.74341599999997
1840,2249,0.0006268975,0.00034361099999999996,2649.333375,-46.277984599999996,-275.625
1841,2250,0.0006263415,0.0003436175,2649.333375,-41.406618099999996,-299.5065765
1842,2251,0.0006264755,0.0003436155,2649.333375,-36.535251599999995,-323.388153
1843,2252,0.0006263110000000001,0.000343617,2649.333375,-31.663883674999997,-347.269745
1844,2253,0.000627131,0.000343621,2649.333375,-26.792517175,-371.1513215
1845,2254,0.0006271965,0.000343593,2649.333375,-21.921150675,-395.032898
1846,2255,0.0006282900000000001,0.0003433085,2649.333375,-17.049784199999998,-418.9144745
1847,2256,0.000630521,0.000344456,2649.333375,-12.178417465,-442.796051
1848,2257,0.000644018,0.000351683,2649.333375,-7.307050825000001,-466.67762749999997
1849,2258,0.000573046,0.00030162950000000004,2649.333375,-2.435684085,-490.559204
1850,2259,0.1328865,0.0708854,1373.5,90.120285,-60.690788250000004
1851,2260,0.132078,0.07168595,1373.5,85.248918525,-84.5723686
1852,2261,0.1302615,0.0714426,1373.5,80.377553925,-108.45394885000002
1853,2262,0.12902799999999998,0.0714929,1373.5,75.50618739999999,-132.335529
1854,2263,0.1278435,0.07147705000000001,1373.5,70.634819,-156.2171095
1855,2264,0.126897,0.0714802,1373.5,65.7634525,-180.098686
1856,2265,0.1261085,0.07147914999999999,1373.5,60.892086,-203.9802625
1857,2266,0.1255195,0.07147935,1373.5,56.0207195,-227.86183949999997
1858,2267,0.1251135,0.07147925,1373.5,51.14935299999999,-251.74341599999997
1859,2268,0.124898,0.0714794,1373.5,46.277984599999996,-275.625
1860,2269,0.12487300000000001,0.07147919999999999,1373.5,41.406618099999996,-299.5065765
1861,2270,0.1250365,0.07148109999999999,1373.5,36.535251599999995,-323.388153
1862,2271,0.1253845,0.07147780000000001,1373.5,31.663883674999997,-347.269745
1863,2272,0.1259555,0.07150520000000002,1373.5,26.792517174999997,-371.1513215
1864,2273,0.1266015,0.07144865,1373.5,21.921150674999996,-395.032898
1865,2274,0.1280795,0.07185805,1373.5,17.049784199999998,-418.9144745
1866,2275,0.127975,0.07090930000000001,1373.5,12.178417465,-442.796051
1867,2276,0.13773400000000002,0.0770539,1373.5,7.307050824999999,-466.67762749999997
1868,2277,0.124338,0.06149385,1373.5,2.435684085,-490.559204
1869,2278,0.1347545,0.07252075,1348.5,90.120285,-60.690788250000004
1870,2279,0.1351255,0.073474,1348.5,85.2489166,-84.5723686
1871,2280,0.133242,0.07327310000000001,1348.5,80.377552,-108.45394885000002
1872,2281,0.13206099999999998,0.07333529999999999,1348.5,75.50618739999999,-132.335529
1873,2282,0.13091999999999998,0.0733227,1348.5,70.634819,-156.2171095
1874,2283,0.1299755,0.0733268,1348.5,65.7634525,-180.098686
1875,2284,0.129209,0.073326,1348.5,60.892086,-203.9802625
1876,2285,0.12862099999999999,0.07332625000000001,1348.5,56.0207195,-227.86183949999997
1877,2286,0.128218,0.07332620000000001,1348.5,51.14935299999999,-251.74341599999997
1878,2287,0.127999,0.07332625000000001,1348.5,46.277984599999996,-275.625
1879,2288,0.127963,0.07332575,1348.5,41.406618099999996,-299.5065765
1880,2289,0.128115,0.07332654999999999,1348.5,36.535251599999995,-323.388153
1881,2290,0.12843149999999998,0.0733194,1348.5,31.6638832,-347.269745
1882,2291,0.128974,0.0733331,1348.5,26.7925167,-371.1513215
1883,2292,0.129461,0.07322719999999999,1348.5,21.9211502,-395.032898
1884,2293,0.13080350000000002,0.07345945,1348.5,17.049784199999998,-418.9144745
1885,2294,0.128775,0.07187450000000001,1348.5,12.1784177,-442.796051
1886,2295,0.138233,0.0757346,1348.5,7.30705118,-466.67762749999997
1887,2296,0.0938524,0.051971100000000006,1348.5,2.43568468,-490.559204
1888,2297,0.12563000000000002,0.07184130000000001,1323.5,90.120285,-60.690788250000004
1889,2298,0.1296365,0.0744714,1323.5,85.2489166,-84.5723686
1890,2299,0.1302955,0.07493949999999999,1323.5,80.377552,-108.45394885000002
1891,2300,0.1305885,0.07515215,1323.5,75.50618739999999,-132.335529
1892,2301,0.13043100000000002,0.07510775,1323.5,70.634819,-156.2171095
1893,2302,0.13032149999999998,0.0750673,1323.5,65.7634525,-180.098686
1894,2303,0.130156,0.0749969,1323.5,60.892086,-203.9802625
1895,2304,0.13013550000000002,0.07499075,1323.5,56.0207195,-227.86183949999997
1896,2305,0.1300905,0.07496549999999999,1323.5,51.14935299999999,-251.74341599999997
1897,2306,0.1302005,0.07501415,1323.5,46.277984599999996,-275.625
1898,2307,0.13026549999999998,0.07502935,1323.5,41.406618099999996,-299.5065765
1899,2308,0.1305305,0.0751473,1323.5,36.535251599999995,-323.388153
1900,2309,0.1306575,0.07517775,1323.5,31.6638832,-347.269745
1901,2310,0.1309145,0.07527555,1323.5,26.7925167,-371.1513215
1902,2311,0.13043749999999998,0.07493155000000001,1323.5,21.9211502,-395.032898
1903,2312,0.1295995,0.07435725,1323.5,17.049784199999998,-418.9144745
1904,2313,0.12424500000000001,0.07085535000000001,1323.5,12.1784177,-442.796051
1905,2314,0.124718,0.0701278,1323.5,7.30705118,-466.67762749999997
1906,2315,0.121978,0.0545989,1323.5,2.43568468,-490.559204
1907,2316,0.131091,0.07529015,1298.5,90.120285,-60.690788250000004
1908,2317,0.133141,0.07654849999999999,1298.5,85.2489166,-84.5723686
1909,2318,0.132209,0.07610125,1298.5,80.377552,-108.45394885000002
1910,2319,0.1318225,0.07592489999999999,1298.5,75.50618739999999,-132.335529
1911,2320,0.1314355,0.07574694999999998,1298.5,70.634819,-156.2171095
1912,2321,0.1311715,0.07563495,1298.5,65.7634525,-180.098686
1913,2322,0.131062,0.07560075,1298.5,60.892086,-203.9802625
1914,2323,0.130963,0.07556455,1298.5,56.0207195,-227.86183949999997
1915,2324,0.13096950000000002,0.07557665,1298.5,51.14935299999999,-251.74341599999997
1916,2325,0.1309665,0.07557385,1298.5,46.277984599999996,-275.625
1917,2326,0.1310925,0.07563385,1298.5,41.406618099999996,-299.5065765
1918,2327,0.13120500000000002,0.0756755,1298.5,36.535251599999995,-323.388153
1919,2328,0.131558,0.0758491,1298.5,31.6638832,-347.269745
1920,2329,0.1319845,0.07605405,1298.5,26.7925167,-371.1513215
1921,2330,0.1325055,0.07632235000000001,1298.5,21.9211502,-395.032898
1922,2331,0.1335015,0.07680029999999999,1298.5,17.049784199999998,-418.9144745
1923,2332,0.130542,0.07500355,1298.5,12.1784177,-442.796051
1924,2333,0.126685,0.07133765,1298.5,7.30705118,-466.67762749999997
1925,2334,0.09434995,0.048514550000000004,1298.5,2.43568468,-490.559204
1926,2335,0.13623849999999998,0.07823225,1273.5,90.120285,-60.690788250000004
1927,2336,0.13374,0.0768961,1273.5,85.2489166,-84.5723686
1928,2337,0.1337755,0.07698944999999999,1273.5,80.377552,-108.45394885000002
1929,2338,0.132616,0.0763913,1273.5,75.50618739999999,-132.335529
1930,2339,0.13222450000000002,0.0762193,1273.5,70.634819,-156.2171095
1931,2340,0.1319775,0.07612345000000001,1273.5,65.7634525,-180.098686
1932,2341,0.13185400000000003,0.07608665,1273.5,60.892086,-203.9802625
1933,2342,0.1318,0.07607915,1273.5,56.0207195,-227.86183949999997
1934,2343,0.131771,0.07607520000000001,1273.5,51.14935299999999,-251.74341599999997
1935,2344,0.1317765,0.07608075,1273.5,46.277984599999996,-275.625
1936,2345,0.1318105,0.0760913,1273.5,41.406618099999996,-299.5065765
1937,2346,0.1319335,0.07614365000000001,1273.5,36.535251599999995,-323.388153
1938,2347,0.1322075,0.0762687,1273.5,31.6638832,-347.269745
1939,2348,0.13268449999999998,0.07650699999999999,1273.5,26.7925167,-371.1513215
1940,2349,0.13409350000000003,0.07725784999999999,1273.5,21.9211502,-395.032898
1941,2350,0.133822,0.07704824999999998,1273.5,17.049784199999998,-418.9144745
1942,2351,0.13663999999999998,0.07855845,1273.5,12.1784177,-442.796051
1943,2352,0.1152185,0.06605305,1273.5,7.30705118,-466.67762749999997
1944,2353,0.0784435,0.044616550000000005,1273.5,2.43568468,-490.559204
1945,2354,0.1303885,0.07469200000000001,1248.5,90.120285,-60.690788250000004
1946,2355,0.13349850000000002,0.0767091,1248.5,85.2489166,-84.5723686
1947,2356,0.13296550000000001,0.0764785,1248.5,80.377552,-108.45394885000002
1948,2357,0.13307049999999998,0.07662535000000001,1248.5,75.50618739999999,-132.335529
1949,2358,0.132827,0.0765459,1248.5,70.634819,-156.2171095
1950,2359,0.1328045,0.07657755,1248.5,65.7634525,-180.098686
1951,2360,0.132741,0.07657254999999999,1248.5,60.892086,-203.9802625
1952,2361,0.1327405,0.0765931,1248.5,56.0207195,-227.86183949999997
1953,2362,0.1327025,0.07658015,1248.5,51.14935299999999,-251.74341599999997
1954,2363,0.13271300000000003,0.07658565,1248.5,46.277984599999996,-275.625
1955,2364,0.132669,0.0765479,1248.5,41.406618099999996,-299.5065765
1956,2365,0.1327285,0.07655769999999999,1248.5,36.535251599999995,-323.388153
1957,2366,0.132681,0.0764955,1248.5,31.6638832,-347.269745
1958,2367,0.1329865,0.07661485000000001,1248.5,26.7925167,-371.1513215
1959,2368,0.1326725,0.07635615,1248.5,21.9211502,-395.032898
1960,2369,0.1333395,0.07665685,1248.5,17.049784199999998,-418.9144745
1961,2370,0.12842399999999998,0.07355985000000001,1248.5,12.1784177,-442.796051
1962,2371,0.1203545,0.0693411,1248.5,7.30705118,-466.67762749999997
1963,2372,0.08531925,0.04847975,1248.5,2.43568468,-490.559204
1964,2373,0.12454,0.0716331,1223.5,90.120285,-60.690788250000004
1965,2374,0.130267,0.0748328,1223.5,85.248918525,-84.5723686
1966,2375,0.132365,0.07612050000000001,1223.5,80.377553925,-108.45394885000002
1967,2376,0.13308750000000003,0.0765862,1223.5,75.50618739999999,-132.335529
1968,2377,0.13355,0.07690854999999999,1223.5,70.634819,-156.2171095
1969,2378,0.13360450000000001,0.0769688,1223.5,65.7634525,-180.098686
1970,2379,0.1337085,0.07705545,1223.5,60.892086,-203.9802625
1971,2380,0.1336925,0.07705290000000001,1223.5,56.0207195,-227.86183949999997
1972,2381,0.133734,0.07707835,1223.5,51.14935299999999,-251.74341599999997
1973,2382,0.133677,0.07703115,1223.5,46.277984599999996,-275.625
1974,2383,0.13370749999999998,0.07702709999999999,1223.5,41.406618099999996,-299.5065765
1975,2384,0.13352150000000002,0.07688405000000001,1223.5,36.535251599999995,-323.388153
1976,2385,0.13349250000000001,0.0768208,1223.5,31.663883674999997,-347.269745
1977,2386,0.132728,0.0763192,1223.5,26.792517175,-371.1513215
1978,2387,0.13188850000000002,0.07576435000000001,1223.5,21.921150675,-395.032898
1979,2388,0.12869999999999998,0.0738441,1223.5,17.049784199999998,-418.9144745
1980,2389,0.1217365,0.06990650000000001,1223.5,12.178417465,-442.796051
1981,2390,0.11617150000000001,0.06658420000000001,1223.5,7.307050825000001,-466.67762749999997
1982,2391,0.10062745000000001,0.05101895,1223.5,2.4356840823667216,-490.559204
1983,2392,0.0113167,-0.006053005,2578.447875,90.120285,-60.690788250000004
1984,2393,0.013137099999999999,-0.006983205,2578.447875,85.248918525,-84.5723686
1985,2394,0.01391085,-0.00744475,2578.447875,80.377553925,-108.45394885000002
1986,2395,0.014687350000000002,-0.00796483,2578.447875,75.50618739999999,-132.335529
1987,2396,0.01491075,-0.008184375,2578.447875,70.634819,-156.2171095
1988,2397,0.01521755,-0.00845551,2578.447875,65.7634525,-180.098686
1989,2398,0.01518955,-0.008523949999999999,2578.447875,60.892086,-203.9802625
1990,2399,0.01529475,-0.008659525000000001,2578.447875,56.0207195,-227.86183949999997
1991,2400,0.01515545,-0.008638650000000001,2578.447875,51.14935299999999,-251.74341599999997
1992,2401,0.01517775,-0.00869967,2578.447875,46.277984599999996,-275.625
1993,2402,0.01494035,-0.008594399999999999,2578.447875,41.406618099999996,-299.5065765
1994,2403,0.014901649999999999,-0.008592315,2578.447875,36.535251599999995,-323.388153
1995,2404,0.014482700000000001,-0.008356285,2578.447875,31.663883674999997,-347.269745
1996,2405,0.014315,-0.008256705,2578.447875,26.792517174999997,-371.1513215
1997,2406,0.013538399999999999,-0.00780088,2578.447875,21.921150674999996,-395.032898
1998,2407,0.013110300000000002,-0.007551635,2578.447875,17.049784199999998,-418.9144745
1999,2408,0.0117389,-0.00676181,2578.447875,12.178417465,-442.796051
2000,2409,0.01135045,-0.006485385,2578.447875,7.307050824999999,-466.67762749999997
2001,2410,0.0107823,-0.00479496,2578.447875,2.435684085,-490.559204
2002,2411,0.0128683,-0.0066706000000000005,2553.34375,90.120285,-60.690788250000004
2003,2412,0.0139048,-0.0072585,2553.34375,85.2489166,-84.5723686
2004,2413,0.0147281,-0.007778985,2553.34375,80.377552,-108.45394885000002
2005,2414,0.0149097,-0.008008175,2553.34375,75.50618739999999,-132.335529
2006,2415,0.015165149999999999,-0.008275020000000001,2553.34375,70.634819,-156.2171095
2007,2416,0.0150816,-0.008344985,2553.34375,65.7634525,-180.098686
2008,2417,0.01514075,-0.00847782,2553.34375,60.892086,-203.9802625
2009,2418,0.01499835,-0.008479195,2553.34375,56.0207195,-227.86183949999997
2010,2419,0.015003100000000002,-0.008550285000000001,2553.34375,51.14935299999999,-251.74341599999997
2011,2420,0.01483775,-0.0085039,2553.34375,46.277984599999996,-275.625
2012,2421,0.01483705,-0.008540180000000001,2553.34375,41.406618099999996,-299.5065765
2013,2422,0.0146133,-0.00842746,2553.34375,36.535251599999995,-323.388153
2014,2423,0.01460005,-0.00842216,2553.34375,31.6638832,-347.269745
2015,2424,0.0142036,-0.008180415,2553.34375,26.7925167,-371.1513215
2016,2425,0.014061049999999999,-0.00807412,2553.34375,21.9211502,-395.032898
2017,2426,0.013271749999999999,-0.0076073,2553.34375,17.049784199999998,-418.9144745
2018,2427,0.0126488,-0.007249485,2553.34375,12.1784177,-442.796051
2019,2428,0.01131225,-0.00647901,2553.34375,7.30705118,-466.67762749999997
2020,2429,0.0077199849999999995,-0.004025910000000001,2553.34375,2.43568468,-490.559204
2021,2430,0.013567300000000001,-0.006973725,2528.239625,90.120285,-60.690788250000004
2022,2431,0.0148113,-0.00765026,2528.239625,85.2489166,-84.5723686
2023,2432,0.01521755,-0.00801755,2528.239625,80.377552,-108.45394885000002
2024,2433,0.0154334,-0.008266355,2528.239625,75.50618739999999,-132.335529
2025,2434,0.015253949999999999,-0.008311085,2528.239625,70.634819,-156.2171095
2026,2435,0.0152034,-0.008397375,2528.239625,65.7634525,-180.098686
2027,2436,0.0149918,-0.0083845,2528.239625,60.892086,-203.9802625
2028,2437,0.014918250000000001,-0.008428755,2528.239625,56.0207195,-227.86183949999997
2029,2438,0.014759149999999999,-0.00840621,2528.239625,51.14935299999999,-251.74341599999997
2030,2439,0.014728399999999999,-0.00844379,2528.239625,46.277984599999996,-275.625
2031,2440,0.0146095,-0.008408275,2528.239625,41.406618099999996,-299.5065765
2032,2441,0.014639349999999999,-0.008445359999999999,2528.239625,36.535251599999995,-323.388153
2033,2442,0.01449655,-0.00836222,2528.239625,31.6638832,-347.269745
2034,2443,0.014534950000000001,-0.008364095,2528.239625,26.7925167,-371.1513215
2035,2444,0.0141499,-0.0081177,2528.239625,21.9211502,-395.032898
2036,2445,0.01378695,-0.007874995,2528.239625,17.049784199999998,-418.9144745
2037,2446,0.01266215,-0.007248565,2528.239625,12.1784177,-442.796051
2038,2447,0.0101026,-0.005821995,2528.239625,7.30705118,-466.67762749999997
2039,2448,0.00618788,-0.0035673099999999998,2528.239625,2.43568468,-490.559204
2040,2449,0.0139351,-0.00691979,2503.135375,90.120285,-60.690788250000004
2041,2450,0.015286149999999998,-0.00787938,2503.135375,85.2489166,-84.5723686
2042,2451,0.015713650000000003,-0.008280735000000001,2503.135375,80.377552,-108.45394885000002
2043,2452,0.01555725,-0.00836427,2503.135375,75.50618739999999,-132.335529
2044,2453,0.015418250000000001,-0.008402615,2503.135375,70.634819,-156.2171095
2045,2454,0.015124499999999999,-0.008362060000000001,2503.135375,65.7634525,-180.098686
2046,2455,0.014938449999999999,-0.008351335000000001,2503.135375,60.892086,-203.9802625
2047,2456,0.014734500000000001,-0.00832171,2503.135375,56.0207195,-227.86183949999997
2048,2457,0.0146202,-0.008326445,2503.135375,51.14935299999999,-251.74341599999997
2049,2458,0.014520749999999999,-0.008320105,2503.135375,46.277984599999996,-275.625
2050,2459,0.01450295,-0.008349289999999999,2503.135375,41.406618099999996,-299.5065765
2051,2460,0.014480149999999999,-0.00835309,2503.135375,36.535251599999995,-323.388153
2052,2461,0.01454785,-0.008393890000000001,2503.135375,31.6638832,-347.269745
2053,2462,0.01447585,-0.00834,2503.135375,26.7925167,-371.1513215
2054,2463,0.01443755,-0.008277135000000001,2503.135375,21.9211502,-395.032898
2055,2464,0.01377635,-0.007864835,2503.135375,17.049784199999998,-418.9144745
2056,2465,0.01247005,-0.007074785,2503.135375,12.1784177,-442.796051
2057,2466,0.00990219,-0.005536025,2503.135375,7.30705118,-466.67762749999997
2058,2467,0.006356624999999999,-0.003418225,2503.135375,2.43568468,-490.559204
2059,2468,0.014790900000000001,-0.007066785,2478.03125,90.120285,-60.690788250000004
2060,2469,0.015710250000000002,-0.00805707,2478.03125,85.2489166,-84.5723686
2061,2470,0.015696349999999998,-0.008312775,2478.03125,80.377552,-108.45394885000002
2062,2471,0.01557735,-0.008380115,2478.03125,75.50618739999999,-132.335529
2063,2472,0.015269,-0.008350505000000001,2478.03125,70.634819,-156.2171095
2064,2473,0.014992349999999998,-0.008288980000000001,2478.03125,65.7634525,-180.098686
2065,2474,0.014744900000000002,-0.008248394999999999,2478.03125,60.892086,-203.9802625
2066,2475,0.01453285,-0.008205500000000001,2478.03125,56.0207195,-227.86183949999997
2067,2476,0.0144065,-0.00819974,2478.03125,51.14935299999999,-251.74341599999997
2068,2477,0.01429765,-0.00819167,2478.03125,46.277984599999996,-275.625
2069,2478,0.014290649999999998,-0.00822166,2478.03125,41.406618099999996,-299.5065765
2070,2479,0.01428405,-0.0082414,2478.03125,36.535251599999995,-323.388153
2071,2480,0.014352350000000002,-0.008285150000000002,2478.03125,31.6638832,-347.269745
2072,2481,0.014381350000000001,-0.008286169999999999,2478.03125,26.7925167,-371.1513215
2073,2482,0.01426785,-0.00819804,2478.03125,21.9211502,-395.032898
2074,2483,0.0139633,-0.00793729,2478.03125,17.049784199999998,-418.9144745
2075,2484,0.01250525,-0.0069659249999999995,2478.03125,12.1784177,-442.796051
2076,2485,0.01050285,-0.005571765,2478.03125,7.30705118,-466.67762749999997
2077,2486,0.00753387,-0.003277225,2478.03125,2.43568468,-490.559204
2078,2487,0.01599835,-0.00759603,2452.927125,90.120285,-60.690788250000004
2079,2488,0.015568650000000002,-0.00797244,2452.927125,85.2489166,-84.5723686
2080,2489,0.015502199999999999,-0.008170685,2452.927125,80.377552,-108.45394885000002
2081,2490,0.01524845,-0.008228365,2452.927125,75.50618739999999,-132.335529
2082,2491,0.014941699999999999,-0.008160015,2452.927125,70.634819,-156.2171095
2083,2492,0.0147101,-0.008143425,2452.927125,65.7634525,-180.098686
2084,2493,0.01443,-0.008066205,2452.927125,60.892086,-203.9802625
2085,2494,0.01428325,-0.00806226,2452.927125,56.0207195,-227.86183949999997
2086,2495,0.014087299999999999,-0.008014425,2452.927125,51.14935299999999,-251.74341599999997
2087,2496,0.0140497,-0.00804247,2452.927125,46.277984599999996,-275.625
2088,2497,0.01393975,-0.008018540000000001,2452.927125,41.406618099999996,-299.5065765
2089,2498,0.014009549999999999,-0.00807876,2452.927125,36.535251599999995,-323.388153
2090,2499,0.01395265,-0.008053874999999999,2452.927125,31.6638832,-347.269745
2091,2500,0.014058399999999999,-0.008107389999999999,2452.927125,26.7925167,-371.1513215
2092,2501,0.013942,-0.007995075,2452.927125,21.9211502,-395.032898
2093,2502,0.0137102,-0.007800385,2452.927125,17.049784199999998,-418.9144745
2094,2503,0.01347765,-0.00737724,2452.927125,12.1784177,-442.796051
2095,2504,0.011460900000000001,-0.0055988,2452.927125,7.30705118,-466.67762749999997
2096,2505,0.009496305,-0.0033415700000000003,2452.927125,2.43568468,-490.559204
2097,2506,0.015727249999999998,-0.007476695,2427.822875,90.120285,-60.690788250000004
2098,2507,0.01526945,-0.00767332,2427.822875,85.2489166,-84.5723686
2099,2508,0.014994049999999998,-0.007884325000000001,2427.822875,80.377552,-108.45394885000002
2100,2509,0.014673499999999999,-0.007863015,2427.822875,75.50618739999999,-132.335529
2101,2510,0.0145361,-0.007936205,2427.822875,70.634819,-156.2171095
2102,2511,0.014240950000000002,-0.007863705,2427.822875,65.7634525,-180.098686
2103,2512,0.014121249999999998,-0.007890520000000002,2427.822875,60.892086,-203.9802625
2104,2513,0.01387435,-0.00782267,2427.822875,56.0207195,-227.86183949999997
2105,2514,0.01381305,-0.00785197,2427.822875,51.14935299999999,-251.74341599999997
2106,2515,0.013623,-0.00779416,2427.822875,46.277984599999996,-275.625
2107,2516,0.013645250000000001,-0.007842575000000001,2427.822875,41.406618099999996,-299.5065765
2108,2517,0.0134858,-0.00777505,2427.822875,36.535251599999995,-323.388153
2109,2518,0.013581550000000001,-0.00783739,2427.822875,31.6638832,-347.269745
2110,2519,0.013380949999999999,-0.0077087449999999995,2427.822875,26.7925167,-371.1513215
2111,2520,0.013489200000000002,-0.0077392,2427.822875,21.9211502,-395.032898
2112,2521,0.01322525,-0.007458665,2427.822875,17.049784199999998,-418.9144745
2113,2522,0.01327845,-0.00730291,2427.822875,12.1784177,-442.796051
2114,2523,0.014164800000000002,-0.0067490350000000005,2427.822875,7.30705118,-466.67762749999997
2115,2524,0.0125865,-0.00350786,2427.822875,2.43568468,-490.559204
2116,2525,0.0151083,-0.00675922,2402.71875,90.120285,-60.690788250000004
2117,2526,0.014719300000000001,-0.00729652,2402.71875,85.2489166,-84.5723686
2118,2527,0.014230399999999999,-0.00733811,2402.71875,80.377552,-108.45394885000002
2119,2528,0.014219599999999999,-0.007577035,2402.71875,75.50618739999999,-132.335529
2120,2529,0.01393565,-0.007557195,2402.71875,70.634819,-156.2171095
2121,2530,0.0138904,-0.007655065,2402.71875,65.7634525,-180.098686
2122,2531,0.0136301,-0.00759625,2402.71875,60.892086,-203.9802625
2123,2532,0.01357315,-0.00764457,2402.71875,56.0207195,-227.86183949999997
2124,2533,0.013342300000000001,-0.007575635,2402.71875,51.14935299999999,-251.74341599999997
2125,2534,0.013327600000000002,-0.007618865,2402.71875,46.277984599999996,-275.625
2126,2535,0.013113199999999998,-0.007533255,2402.71875,41.406618099999996,-299.5065765
2127,2536,0.013153000000000001,-0.00757925,2402.71875,36.535251599999995,-323.388153
2128,2537,0.012886,-0.007432485,2402.71875,31.6638832,-347.269745
2129,2538,0.012957100000000001,-0.007460990000000001,2402.71875,26.7925167,-371.1513215
2130,2539,0.0125409,-0.007165670000000001,2402.71875,21.9211502,-395.032898
2131,2540,0.012742800000000002,-0.007172775,2402.71875,17.049784199999998,-418.9144745
2132,2541,0.0123583,-0.006587135,2402.71875,12.1784177,-442.796051
2133,2542,0.0138652,-0.0068765449999999995,2402.71875,7.30705118,-466.67762749999997
2134,2543,0.01785745,-0.0052456199999999994,2402.71875,2.43568468,-490.559204
2135,2544,0.019539149999999998,-0.00447494,2377.614625,90.120285,-60.690788250000004
2136,2545,0.020232900000000005,-0.00571196,2377.614625,85.2489166,-84.5723686
2137,2546,0.0203867,-0.0066682749999999995,2377.614625,80.377552,-108.45394885000002
2138,2547,0.0202917,-0.00750061,2377.614625,75.50618739999999,-132.335529
2139,2548,0.0198978,-0.0080809,2377.614625,70.634819,-156.2171095
2140,2549,0.0194699,-0.0086023,2377.614625,65.7634525,-180.098686
2141,2550,0.0188295,-0.008894349999999999,2377.614625,60.892086,-203.9802625
2142,2551,0.01829555,-0.009179545,2377.614625,56.0207195,-227.86183949999997
2143,2552,0.017584999999999996,-0.009247925,2377.614625,51.14935299999999,-251.74341599999997
2144,2553,0.0170752,-0.00934486,2377.614625,46.277984599999996,-275.625
2145,2554,0.016368200000000003,-0.00920993,2377.614625,41.406618099999996,-299.5065765
2146,2555,0.01592565,-0.00912756,2377.614625,36.535251599999995,-323.388153
2147,2556,0.015200749999999999,-0.00877077,2377.614625,31.6638832,-347.269745
2148,2557,0.01475225,-0.008479525,2377.614625,26.7925167,-371.1513215
2149,2558,0.013887,-0.00786482,2377.614625,21.9211502,-395.032898
2150,2559,0.013205349999999998,-0.007316935,2377.614625,17.049784199999998,-418.9144745
2151,2560,0.0118757,-0.00639932,2377.614625,12.1784177,-442.796051
2152,2561,0.01051955,-0.0055805,2377.614625,7.30705118,-466.67762749999997
2153,2562,0.007282245,-0.0039916,2377.614625,2.43568468,-490.559204
2154,2563,0.0215858,-0.004827625,2352.510375,90.120285,-60.690788250000004
2155,2564,0.02175655,-0.005848685,2352.510375,85.2489166,-84.5723686
2156,2565,0.021493449999999997,-0.00670305,2352.510375,80.377552,-108.45394885000002
2157,2566,0.02090945,-0.007325855,2352.510375,75.50618739999999,-132.335529
2158,2567,0.0202193,-0.00788192,2352.510375,70.634819,-156.2171095
2159,2568,0.019357649999999997,-0.00822212,2352.510375,65.7634525,-180.098686
2160,2569,0.0185771,-0.008550025,2352.510375,60.892086,-203.9802625
2161,2570,0.01769205,-0.008687714999999999,2352.510375,56.0207195,-227.86183949999997
2162,2571,0.01699625,-0.008847299999999999,2352.510375,51.14935299999999,-251.74341599999997
2163,2572,0.0162175,-0.008819819999999999,2352.510375,46.277984599999996,-275.625
2164,2573,0.01571025,-0.008839195000000001,2352.510375,41.406618099999996,-299.5065765
2165,2574,0.0150765,-0.00864069,2352.510375,36.535251599999995,-323.388153
2166,2575,0.01477595,-0.008509760000000002,2352.510375,31.6638832,-347.269745
2167,2576,0.014232950000000001,-0.008106055000000001,2352.510375,26.7925167,-371.1513215
2168,2577,0.0139879,-0.007780375,2352.510375,21.9211502,-395.032898
2169,2578,0.013338200000000001,-0.007143554999999999,2352.510375,17.049784199999998,-418.9144745
2170,2579,0.01271045,-0.00655652,2352.510375,12.1784177,-442.796051
2171,2580,0.011316200000000002,-0.00567636,2352.510375,7.30705118,-466.67762749999997
2172,2581,0.00834841,-0.004144800000000001,2352.510375,2.43568468,-490.559204
2173,2582,0.02326895,-0.005219165,2327.40625,90.120285,-60.690788250000004
2174,2583,0.02313325,-0.006174590000000001,2327.40625,85.2489166,-84.5723686
2175,2584,0.02253995,-0.00687109,2327.40625,80.377552,-108.45394885000002
2176,2585,0.021661549999999998,-0.007445594999999999,2327.40625,75.50618739999999,-132.335529
2177,2586,0.020579350000000003,-0.007792145,2327.40625,70.634819,-156.2171095
2178,2587,0.0195276,-0.00812095,2327.40625,65.7634525,-180.098686
2179,2588,0.01839755,-0.008274915,2327.40625,60.892086,-203.9802625
2180,2589,0.017438750000000003,-0.00845039,2327.40625,56.0207195,-227.86183949999997
2181,2590,0.016479,-0.008481875,2327.40625,51.14935299999999,-251.74341599999997
2182,2591,0.015776699999999998,-0.008555675,2327.40625,46.277984599999996,-275.625
2183,2592,0.0150865,-0.008473350000000001,2327.40625,41.406618099999996,-299.5065765
2184,2593,0.014742149999999999,-0.008453545,2327.40625,36.535251599999995,-323.388153
2185,2594,0.01431345,-0.008218305,2327.40625,31.6638832,-347.269745
2186,2595,0.014268549999999998,-0.00806302,2327.40625,26.7925167,-371.1513215
2187,2596,0.01392915,-0.00760459,2327.40625,21.9211502,-395.032898
2188,2597,0.013763399999999999,-0.00720175,2327.40625,17.049784199999998,-418.9144745
2189,2598,0.0130281,-0.00644019,2327.40625,12.1784177,-442.796051
2190,2599,0.011511,-0.005422015,2327.40625,7.30705118,-466.67762749999997
2191,2600,0.008813439999999999,-0.003422005,2327.40625,2.43568468,-490.559204
2192,2601,0.02459365,-0.00547221,2302.302125,90.120285,-60.690788250000004
2193,2602,0.024293699999999998,-0.006481509999999999,2302.302125,85.2489166,-84.5723686
2194,2603,0.0234079,-0.007182535,2302.302125,80.377552,-108.45394885000002
2195,2604,0.022221150000000002,-0.00756455,2302.302125,75.50618739999999,-132.335529
2196,2605,0.0209702,-0.007891815,2302.302125,70.634819,-156.2171095
2197,2606,0.01959795,-0.008023309999999999,2302.302125,65.7634525,-180.098686
2198,2607,0.0183725,-0.008174569999999999,2302.302125,60.892086,-203.9802625
2199,2608,0.0171698,-0.008211574999999999,2302.302125,56.0207195,-227.86183949999997
2200,2609,0.0161945,-0.00828715,2302.302125,51.14935299999999,-251.74341599999997
2201,2610,0.0153272,-0.008267075,2302.302125,46.277984599999996,-275.625
2202,2611,0.0147715,-0.00829878,2302.302125,41.406618099999996,-299.5065765
2203,2612,0.01429805,-0.00819431,2302.302125,36.535251599999995,-323.388153
2204,2613,0.014227100000000003,-0.008159320000000001,2302.302125,31.6638832,-347.269745
2205,2614,0.01401085,-0.007870485,2302.302125,26.7925167,-371.1513215
2206,2615,0.0141511,-0.007650465,2302.302125,21.9211502,-395.032898
2207,2616,0.0137656,-0.0070024549999999994,2302.302125,17.049784199999998,-418.9144745
2208,2617,0.01320655,-0.00628673,2302.302125,12.1784177,-442.796051
2209,2618,0.01179995,-0.0048429549999999995,2302.302125,7.30705118,-466.67762749999997
2210,2619,0.010293385,-0.0031239700000000002,2302.302125,2.43568468,-490.559204
2211,2620,0.0260762,-0.0057411300000000005,2277.197875,90.120285,-60.690788250000004
2212,2621,0.025198949999999998,-0.006848285,2277.197875,85.2489166,-84.5723686
2213,2622,0.024005850000000002,-0.00739422,2277.197875,80.377552,-108.45394885000002
2214,2623,0.02265255,-0.0077922849999999995,2277.197875,75.50618739999999,-132.335529
2215,2624,0.0210799,-0.00789982,2277.197875,70.634819,-156.2171095
2216,2625,0.0196464,-0.0080127,2277.197875,65.7634525,-180.098686
2217,2626,0.018199600000000003,-0.008015285,2277.197875,60.892086,-203.9802625
2218,2627,0.0169516,-0.00805057,2277.197875,56.0207195,-227.86183949999997
2219,2628,0.01584385,-0.008038385,2277.197875,51.14935299999999,-251.74341599999997
2220,2629,0.014987999999999998,-0.008064265000000001,2277.197875,46.277984599999996,-275.625
2221,2630,0.014342299999999999,-0.008035695,2277.197875,41.406618099999996,-299.5065765
2222,2631,0.01404095,-0.00805454,2277.197875,36.535251599999995,-323.388153
2223,2632,0.01382785,-0.007933019999999999,2277.197875,31.6638832,-347.269745
2224,2633,0.014043400000000001,-0.00787063,2277.197875,26.7925167,-371.1513215
2225,2634,0.01389225,-0.00743102,2277.197875,21.9211502,-395.032898
2226,2635,0.014033799999999999,-0.007014645,2277.197875,17.049784199999998,-418.9144745
2227,2636,0.0133411,-0.0058725800000000005,2277.197875,12.1784177,-442.796051
2228,2637,0.01263935,-0.00462751,2277.197875,7.30705118,-466.67762749999997
2229,2638,0.0118603,-0.0026700350000000003,2277.197875,2.43568468,-490.559204
2230,2639,0.027349400000000003,-0.0062473500000000005,2252.09375,90.120285,-60.690788250000004
2231,2640,0.025947249999999998,-0.00710699,2252.09375,85.2489166,-84.5723686
2232,2641,0.02446375,-0.00771922,2252.09375,80.377552,-108.45394885000002
2233,2642,0.02266,-0.007831395000000001,2252.09375,75.50618739999999,-132.335529
2234,2643,0.0210778,-0.00792282,2252.09375,70.634819,-156.2171095
2235,2644,0.019411249999999998,-0.007875845,2252.09375,65.7634525,-180.098686
2236,2645,0.01794295,-0.00784865,2252.09375,60.892086,-203.9802625
2237,2646,0.0165934,-0.00780523,2252.09375,56.0207195,-227.86183949999997
2238,2647,0.01543845,-0.007783665,2252.09375,51.14935299999999,-251.74341599999997
2239,2648,0.01454455,-0.00777248,2252.09375,46.277984599999996,-275.625
2240,2649,0.013901900000000002,-0.007781925,2252.09375,41.406618099999996,-299.5065765
2241,2650,0.0135477,-0.007767495,2252.09375,36.535251599999995,-323.388153
2242,2651,0.0135455,-0.00777771,2252.09375,31.6638832,-347.269745
2243,2652,0.013561750000000001,-0.007613480000000001,2252.09375,26.7925167,-371.1513215
2244,2653,0.01407015,-0.0074800249999999995,2252.09375,21.9211502,-395.032898
2245,2654,0.013859,-0.006711025,2252.09375,17.049784199999998,-418.9144745
2246,2655,0.0141277,-0.0059498,2252.09375,12.1784177,-442.796051
2247,2656,0.013695150000000001,-0.00421926,2252.09375,7.30705118,-466.67762749999997
2248,2657,0.01360755,-0.0023992450000000004,2252.09375,2.43568468,-490.559204
2249,2658,0.0284995,-0.00669408,2226.989625,90.120285,-60.690788250000004
2250,2659,0.0266182,-0.007642895,2226.989625,85.2489166,-84.5723686
2251,2660,0.0243176,-0.00775608,2226.989625,80.377552,-108.45394885000002
2252,2661,0.022564999999999998,-0.00784317,2226.989625,75.50618739999999,-132.335529
2253,2662,0.0206674,-0.007751144999999999,2226.989625,70.634819,-156.2171095
2254,2663,0.0190301,-0.007656049999999999,2226.989625,65.7634525,-180.098686
2255,2664,0.017473000000000002,-0.007566955,2226.989625,60.892086,-203.9802625
2256,2665,0.016074699999999997,-0.007477875,2226.989625,56.0207195,-227.86183949999997
2257,2666,0.014923800000000001,-0.0074437800000000005,2226.989625,51.14935299999999,-251.74341599999997
2258,2667,0.013936849999999999,-0.007403575,2226.989625,46.277984599999996,-275.625
2259,2668,0.0133239,-0.007420305,2226.989625,41.406618099999996,-299.5065765
2260,2669,0.012939500000000001,-0.007421885,2226.989625,36.535251599999995,-323.388153
2261,2670,0.01290615,-0.007429425,2226.989625,31.6638832,-347.269745
2262,2671,0.013231449999999999,-0.007415130000000001,2226.989625,26.7925167,-371.1513215
2263,2672,0.01349885,-0.007187405,2226.989625,21.9211502,-395.032898
2264,2673,0.014563699999999999,-0.006961035,2226.989625,17.049784199999998,-418.9144745
2265,2674,0.014530350000000001,-0.005676479999999999,2226.989625,12.1784177,-442.796051
2266,2675,0.01529775,-0.004408945,2226.989625,7.30705118,-466.67762749999997
2267,2676,0.015827350000000004,-0.002074285,2226.989625,2.43568468,-490.559204
2268,2677,0.029595450000000002,-0.00768608,2201.885375,90.120285,-60.690788250000004
2269,2678,0.02621925,-0.007707615,2201.885375,85.2489166,-84.5723686
2270,2679,0.024141299999999997,-0.00772442,2201.885375,80.377552,-108.45394885000002
2271,2680,0.0219232,-0.00759478,2201.885375,75.50618739999999,-132.335529
2272,2681,0.020115849999999998,-0.00742326,2201.885375,70.634819,-156.2171095
2273,2682,0.018385850000000002,-0.0072984799999999996,2201.885375,65.7634525,-180.098686
2274,2683,0.01680465,-0.0071398550000000005,2201.885375,60.892086,-203.9802625
2275,2684,0.01543785,-0.0070707949999999995,2201.885375,56.0207195,-227.86183949999997
2276,2685,0.0141691,-0.006968045,2201.885375,51.14935299999999,-251.74341599999997
2277,2686,0.0132596,-0.00696687,2201.885375,46.277984599999996,-275.625
2278,2687,0.0124763,-0.006918334999999999,2201.885375,41.406618099999996,-299.5065765
2279,2688,0.01217975,-0.0069719099999999996,2201.885375,36.535251599999995,-323.388153
2280,2689,0.0120706,-0.006951209999999999,2201.885375,31.6638832,-347.269745
2281,2690,0.01242105,-0.00699753,2201.885375,26.7925167,-371.1513215
2282,2691,0.0131801,-0.0069391,2201.885375,21.9211502,-395.032898
2283,2692,0.013963699999999999,-0.006726045,2201.885375,17.049784199999998,-418.9144745
2284,2693,0.0163142,-0.00645026,2201.885375,12.1784177,-442.796051
2285,2694,0.016934,-0.00425557,2201.885375,7.30705118,-466.67762749999997
2286,2695,0.018137,-0.0021184899999999998,2201.885375,2.43568468,-490.559204
2287,2696,0.028594,-0.007806250000000001,2176.78125,90.120285,-60.690788250000004
2288,2697,0.0258853,-0.007510015,2176.78125,85.2489166,-84.5723686
2289,2698,0.02324105,-0.007373375,2176.78125,80.377552,-108.45394885000002
2290,2699,0.0211796,-0.00708838,2176.78125,75.50618739999999,-132.335529
2291,2700,0.01929685,-0.006959495,2176.78125,70.634819,-156.2171095
2292,2701,0.017559449999999997,-0.006738315,2176.78125,65.7634525,-180.098686
2293,2702,0.0160342,-0.0066477,2176.78125,60.892086,-203.9802625
2294,2703,0.014558,-0.006489955,2176.78125,56.0207195,-227.86183949999997
2295,2704,0.01338705,-0.00645788,2176.78125,51.14935299999999,-251.74341599999997
2296,2705,0.0122717,-0.0063549,2176.78125,46.277984599999996,-275.625
2297,2706,0.011617,-0.00638731,2176.78125,41.406618099999996,-299.5065765
2298,2707,0.011052349999999999,-0.006317455,2176.78125,36.535251599999995,-323.388153
2299,2708,0.011117249999999999,-0.006409369999999999,2176.78125,31.6638832,-347.269745
2300,2709,0.0113129,-0.00633363,2176.78125,26.7925167,-371.1513215
2301,2710,0.01222855,-0.00647322,2176.78125,21.9211502,-395.032898
2302,2711,0.013601600000000002,-0.0063330850000000005,2176.78125,17.049784199999998,-418.9144745
2303,2712,0.0154775,-0.0064233599999999995,2176.78125,12.1784177,-442.796051
2304,2713,0.020450950000000002,-0.006118220000000001,2176.78125,7.30705118,-466.67762749999997
2305,2714,0.021940550000000003,-0.0019570250000000003,2176.78125,2.43568468,-490.559204
2306,2715,0.0277685,-0.006991315,2151.677125,90.120285,-60.690788250000004
2307,2716,0.02477335,-0.00701793,2151.677125,85.2489166,-84.5723686
2308,2717,0.022267550000000004,-0.0065747,2151.677125,80.377552,-108.45394885000002
2309,2718,0.0202593,-0.006502535,2151.677125,75.50618739999999,-132.335529
2310,2719,0.018336449999999997,-0.0062328950000000004,2151.677125,70.634819,-156.2171095
2311,2720,0.016697800000000002,-0.00614985,2151.677125,65.7634525,-180.098686
2312,2721,0.01506105,-0.005955115,2151.677125,60.892086,-203.9802625
2313,2722,0.01369155,-0.005902365,2151.677125,56.0207195,-227.86183949999997
2314,2723,0.0123292,-0.005760055,2151.677125,51.14935299999999,-251.74341599999997
2315,2724,0.011336099999999998,-0.005758145,2151.677125,46.277984599999996,-275.625
2316,2725,0.0103879,-0.00564784,2151.677125,41.406618099999996,-299.5065765
2317,2726,0.010010265,-0.005702815,2151.677125,36.535251599999995,-323.388153
2318,2727,0.00969931,-0.00558638,2151.677125,31.6638832,-347.269745
2319,2728,0.0102251,-0.00571143,2151.677125,26.7925167,-371.1513215
2320,2729,0.0107878,-0.00552548,2151.677125,21.9211502,-395.032898
2321,2730,0.0125657,-0.005823655,2151.677125,17.049784199999998,-418.9144745
2322,2731,0.01458545,-0.005452535,2151.677125,12.1784177,-442.796051
2323,2732,0.0187542,-0.00651688,2151.677125,7.30705118,-466.67762749999997
2324,2733,0.0283583,-0.00508597,2151.677125,2.43568468,-490.559204
2325,2734,0.0328332,-0.00320396,2126.572875,90.120285,-60.690788250000004
2326,2735,0.031582200000000005,-0.0046970399999999995,2126.572875,85.2489166,-84.5723686
2327,2736,0.030291949999999998,-0.006142355,2126.572875,80.377552,-108.45394885000002
2328,2737,0.028679200000000002,-0.00714302,2126.572875,75.50618739999999,-132.335529
2329,2738,0.02710585,-0.008107435,2126.572875,70.634819,-156.2171095
2330,2739,0.0253069,-0.008698270000000001,2126.572875,65.7634525,-180.098686
2331,2740,0.02368695,-0.009296335,2126.572875,60.892086,-203.9802625
2332,2741,0.021894049999999998,-0.009546780000000001,2126.572875,56.0207195,-227.86183949999997
2333,2742,0.02044505,-0.009846825,2126.572875,51.14935299999999,-251.74341599999997
2334,2743,0.0188486,-0.009793335,2126.572875,46.277984599999996,-275.625
2335,2744,0.01778405,-0.00982709,2126.572875,41.406618099999996,-299.5065765
2336,2745,0.01655125,-0.009469235,2126.572875,36.535251599999995,-323.388153
2337,2746,0.01601425,-0.00923064,2126.572875,31.6638832,-347.269745
2338,2747,0.015219149999999999,-0.008541095,2126.572875,26.7925167,-371.1513215
2339,2748,0.01513995,-0.00799225,2126.572875,21.9211502,-395.032898
2340,2749,0.0146265,-0.006917825000000001,2126.572875,17.049784199999998,-418.9144745
2341,2750,0.014662750000000002,-0.00599482,2126.572875,12.1784177,-442.796051
2342,2751,0.013820800000000001,-0.004340709999999999,2126.572875,7.30705118,-466.67762749999997
2343,2752,0.01393405,-0.00284211,2126.572875,2.43568468,-490.559204
2344,2753,0.035363649999999996,-0.00323283,2101.46875,90.120285,-60.690788250000004
2345,2754,0.0337872,-0.00466931,2101.46875,85.2489166,-84.5723686
2346,2755,0.0317503,-0.0057383650000000005,2101.46875,80.377552,-108.45394885000002
2347,2756,0.0297423,-0.0067567949999999995,2101.46875,75.50618739999999,-132.335529
2348,2757,0.02751915,-0.007430395,2101.46875,70.634819,-156.2171095
2349,2758,0.025416,-0.008100340000000001,2101.46875,65.7634525,-180.098686
2350,2759,0.0231963,-0.008452765000000001,2101.46875,60.892086,-203.9802625
2351,2760,0.02124345,-0.008841375,2101.46875,56.0207195,-227.86183949999997
2352,2761,0.019249049999999997,-0.00892297,2101.46875,51.14935299999999,-251.74341599999997
2353,2762,0.01772195,-0.009076375000000001,2101.46875,46.277984599999996,-275.625
2354,2763,0.0162137,-0.008900555000000001,2101.46875,41.406618099999996,-299.5065765
2355,2764,0.015431299999999998,-0.008831855,2101.46875,36.535251599999995,-323.388153
2356,2765,0.014660900000000001,-0.00838063,2101.46875,31.6638832,-347.269745
2357,2766,0.01477065,-0.008070125000000001,2101.46875,26.7925167,-371.1513215
2358,2767,0.014743199999999998,-0.007319515,2101.46875,21.9211502,-395.032898
2359,2768,0.01545,-0.00673046,2101.46875,17.049784199999998,-418.9144745
2360,2769,0.01571225,-0.005696735,2101.46875,12.1784177,-442.796051
2361,2770,0.016614199999999996,-0.004782939999999999,2101.46875,7.30705118,-466.67762749999997
2362,2771,0.01602525,-0.00420718,2101.46875,2.43568468,-490.559204
2363,2772,0.03786795,-0.00373937,2076.364625,90.120285,-60.690788250000004
2364,2773,0.0356298,-0.0048721649999999995,2076.364625,85.2489166,-84.5723686
2365,2774,0.03333215,-0.0058521649999999995,2076.364625,80.377552,-108.45394885000002
2366,2775,0.0307623,-0.00655879,2076.364625,75.50618739999999,-132.335529
2367,2776,0.028246100000000003,-0.00723691,2076.364625,70.634819,-156.2171095
2368,2777,0.02561385,-0.007632234999999999,2076.364625,65.7634525,-180.098686
2369,2778,0.02317265,-0.00805265,2076.364625,60.892086,-203.9802625
2370,2779,0.0207317,-0.00821352,2076.364625,56.0207195,-227.86183949999997
2371,2780,0.01865305,-0.00843327,2076.364625,51.14935299999999,-251.74341599999997
2372,2781,0.01670415,-0.00839181,2076.364625,46.277984599999996,-275.625
2373,2782,0.015403150000000001,-0.00844104,2076.364625,41.406618099999996,-299.5065765
2374,2783,0.01433655,-0.008184125,2076.364625,36.535251599999995,-323.388153
2375,2784,0.01423535,-0.00805359,2076.364625,31.6638832,-347.269745
2376,2785,0.014263600000000001,-0.00754507,2076.364625,26.7925167,-371.1513215
2377,2786,0.015198,-0.0071868750000000006,2076.364625,21.9211502,-395.032898
2378,2787,0.0159276,-0.006437315,2076.364625,17.049784199999998,-418.9144745
2379,2788,0.01708925,-0.005761955,2076.364625,12.1784177,-442.796051
2380,2789,0.017603,-0.005049455,2076.364625,7.30705118,-466.67762749999997
2381,2790,0.01676505,-0.00330084,2076.364625,2.43568468,-490.559204
2382,2791,0.03964645,-0.0043602,2051.260435,90.120285,-60.690788250000004
2383,2792,0.037253049999999996,-0.0053084199999999995,2051.260435,85.2489166,-84.5723686
2384,2793,0.0345478,-0.006062565000000001,2051.260435,80.377552,-108.45394885000002
2385,2794,0.03175545,-0.0067133850000000005,2051.260435,75.50618739999999,-132.335529
2386,2795,0.0288047,-0.00711027,2051.260435,70.634819,-156.2171095
2387,2796,0.025975150000000002,-0.0075102,2051.260435,65.7634525,-180.098686
2388,2797,0.02312875,-0.007689655,2051.260435,60.892086,-203.9802625
2389,2798,0.02054425,-0.007914999999999998,2051.260435,56.0207195,-227.86183949999997
2390,2799,0.018112749999999997,-0.00794679,2051.260435,51.14935299999999,-251.74341599999997
2391,2800,0.0161666,-0.00805009,2051.260435,46.277984599999996,-275.625
2392,2801,0.01458015,-0.00793713,2051.260435,41.406618099999996,-299.5065765
2393,2802,0.0138848,-0.007925155,2051.260435,36.535251599999995,-323.388153
2394,2803,0.013596900000000002,-0.007616805000000001,2051.260435,31.6638832,-347.269745
2395,2804,0.0143926,-0.0074376,2051.260435,26.7925167,-371.1513215
2396,2805,0.01519895,-0.00687071,2051.260435,21.9211502,-395.032898
2397,2806,0.0166139,-0.006388970000000001,2051.260435,17.049784199999998,-418.9144745
2398,2807,0.017653250000000002,-0.00560357,2051.260435,12.1784177,-442.796051
2399,2808,0.018113949999999997,-0.004418770000000001,2051.260435,7.30705118,-466.67762749999997
2400,2809,0.0187816,-0.0028966,2051.260435,2.43568468,-490.559204
2401,2810,0.0410424,-0.004864455,2026.15625,90.120285,-60.690788250000004
2402,2811,0.0384555,-0.00577332,2026.15625,85.2489166,-84.5723686
2403,2812,0.0355228,-0.006453755,2026.15625,80.377552,-108.45394885000002
2404,2813,0.0323855,-0.006856579999999999,2026.15625,75.50618739999999,-132.335529
2405,2814,0.029288699999999997,-0.007213815,2026.15625,70.634819,-156.2171095
2406,2815,0.02612005,-0.007362755,2026.15625,65.7634525,-180.098686
2407,2816,0.023153149999999997,-0.007539855,2026.15625,60.892086,-203.9802625
2408,2817,0.0202992,-0.007580470000000001,2026.15625,56.0207195,-227.86183949999997
2409,2818,0.01777145,-0.007672245,2026.15625,51.14935299999999,-251.74341599999997
2410,2819,0.015609600000000001,-0.00763994,2026.15625,46.277984599999996,-275.625
2411,2820,0.0141067,-0.00767719,2026.15625,41.406618099999996,-299.5065765
2412,2821,0.013220949999999999,-0.00753414,2026.15625,36.535251599999995,-323.388153
2413,2822,0.013445100000000001,-0.0074844,2026.15625,31.6638832,-347.269745
2414,2823,0.0140197,-0.007115275,2026.15625,26.7925167,-371.1513215
2415,2824,0.015550449999999999,-0.0068374049999999995,2026.15625,21.9211502,-395.032898
2416,2825,0.01681075,-0.006104119999999999,2026.15625,17.049784199999998,-418.9144745
2417,2826,0.0181314,-0.0052695699999999995,2026.15625,12.1784177,-442.796051
2418,2827,0.0193372,-0.003968050000000001,2026.15625,7.30705118,-466.67762749999997
2419,2828,0.020097900000000002,-0.0022666099999999996,2026.15625,2.43568468,-490.559204
2420,2829,0.0423376,-0.005391865,2001.052065,90.120285,-60.690788250000004
2421,2830,0.0393288,-0.0063004,2001.052065,85.2489166,-84.5723686
2422,2831,0.036090300000000006,-0.006776600000000001,2001.052065,80.377552,-108.45394885000002
2423,2832,0.0328074,-0.007129,2001.052065,75.50618739999999,-132.335529
2424,2833,0.02938205,-0.007220355,2001.052065,70.634819,-156.2171095
2425,2834,0.026158050000000002,-0.0073146700000000005,2001.052065,65.7634525,-180.098686
2426,2835,0.0229744,-0.00730842,2001.052065,60.892086,-203.9802625
2427,2836,0.0200259,-0.007331654999999999,2001.052065,56.0207195,-227.86183949999997
2428,2837,0.017370700000000003,-0.007311755,2001.052065,51.14935299999999,-251.74341599999997
2429,2838,0.01511515,-0.007328995,2001.052065,46.277984599999996,-275.625
2430,2839,0.013508200000000001,-0.007288279999999999,2001.052065,41.406618099999996,-299.5065765
2431,2840,0.012780699999999999,-0.00729506,2001.052065,36.535251599999995,-323.388153
2432,2841,0.01282755,-0.00714107,2001.052065,31.6638832,-347.269745
2433,2842,0.01405795,-0.00704556,2001.052065,26.7925167,-371.1513215
2434,2843,0.0153042,-0.006531195,2001.052065,21.9211502,-395.032898
2435,2844,0.01728975,-0.006037375,2001.052065,17.049784199999998,-418.9144745
2436,2845,0.01886275,-0.00485435,2001.052065,12.1784177,-442.796051
2437,2846,0.020313400000000002,-0.0035575249999999997,2001.052065,7.30705118,-466.67762749999997
2438,2847,0.02221165,-0.0017209,2001.052065,2.43568468,-490.559204
2439,2848,0.0433259,-0.00606801,1975.9479350000001,90.120285,-60.690788250000004
2440,2849,0.039898100000000006,-0.006751775,1975.9479350000001,85.2489166,-84.5723686
2441,2850,0.0364041,-0.007206005,1975.9479350000001,80.377552,-108.45394885000002
2442,2851,0.03269095,-0.00722671,1975.9479350000001,75.50618739999999,-132.335529
2443,2852,0.029287849999999997,-0.0072254450000000005,1975.9479350000001,70.634819,-156.2171095
2444,2853,0.02584305,-0.007132035,1975.9479350000001,65.7634525,-180.098686
2445,2854,0.02262875,-0.007044085,1975.9479350000001,60.892086,-203.9802625
2446,2855,0.019609099999999997,-0.0069781900000000004,1975.9479350000001,56.0207195,-227.86183949999997
2447,2856,0.0168177,-0.00691822,1975.9479350000001,51.14935299999999,-251.74341599999997
2448,2857,0.014560199999999999,-0.00690315,1975.9479350000001,46.277984599999996,-275.625
2449,2858,0.012820249999999998,-0.006890055000000001,1975.9479350000001,41.406618099999996,-299.5065765
2450,2859,0.012058300000000001,-0.00688239,1975.9479350000001,36.535251599999995,-323.388153
2451,2860,0.01237485,-0.00687429,1975.9479350000001,31.6638832,-347.269745
2452,2861,0.013382149999999999,-0.006705585,1975.9479350000001,26.7925167,-371.1513215
2453,2862,0.01559205,-0.006540505,1975.9479350000001,21.9211502,-395.032898
2454,2863,0.01735425,-0.00569626,1975.9479350000001,17.049784199999998,-418.9144745
2455,2864,0.01984045,-0.00488357,1975.9479350000001,12.1784177,-442.796051
2456,2865,0.0219824,-0.003062655,1975.9479350000001,7.30705118,-466.67762749999997
2457,2866,0.02378325,-0.00128946,1975.9479350000001,2.43568468,-490.559204
2458,2867,0.0441202,-0.00675896,1950.84375,90.120285,-60.690788250000004
2459,2868,0.04020895,-0.007447875,1950.84375,85.2489166,-84.5723686
2460,2869,0.0359703,-0.007358545,1950.84375,80.377552,-108.45394885000002
2461,2870,0.03238995,-0.0072442949999999996,1950.84375,75.50618739999999,-132.335529
2462,2871,0.02869085,-0.0070350099999999995,1950.84375,70.634819,-156.2171095
2463,2872,0.0253127,-0.00680366,1950.84375,65.7634525,-180.098686
2464,2873,0.0220419,-0.0066529150000000006,1950.84375,60.892086,-203.9802625
2465,2874,0.018932949999999997,-0.00647631,1950.84375,56.0207195,-227.86183949999997
2466,2875,0.01620105,-0.006423615,1950.84375,51.14935299999999,-251.74341599999997
2467,2876,0.013698949999999998,-0.00633347,1950.84375,46.277984599999996,-275.625
2468,2877,0.01204965,-0.006370295,1950.84375,41.406618099999996,-299.5065765
2469,2878,0.0111085,-0.006349945,1950.84375,36.535251599999995,-323.388153
2470,2879,0.01144005,-0.006409685,1950.84375,31.6638832,-347.269745
2471,2880,0.012937500000000001,-0.00639131,1950.84375,26.7925167,-371.1513215
2472,2881,0.014836650000000002,-0.006214115,1950.84375,21.9211502,-395.032898
2473,2882,0.018235,-0.00599503,1950.84375,17.049784199999998,-418.9144745
2474,2883,0.02059735,-0.00454829,1950.84375,12.1784177,-442.796051
2475,2884,0.023620199999999997,-0.003265385,1950.84375,7.30705118,-466.67762749999997
2476,2885,0.02639455,-0.0007455954999999999,1950.84375,2.43568468,-490.559204
2477,2886,0.044599849999999996,-0.00800796,1925.739565,90.120285,-60.690788250000004
2478,2887,0.03926985,-0.007670265,1925.739565,85.2489166,-84.5723686
2479,2888,0.0354261,-0.0073434699999999995,1925.739565,80.377552,-108.45394885000002
2480,2889,0.03140905,-0.006993075,1925.739565,75.50618739999999,-132.335529
2481,2890,0.02790285,-0.00657867,1925.739565,70.634819,-156.2171095
2482,2891,0.024460799999999998,-0.00632626,1925.739565,65.7634525,-180.098686
2483,2892,0.021184500000000002,-0.006009035,1925.739565,60.892086,-203.9802625
2484,2893,0.018158050000000002,-0.005883095,1925.739565,56.0207195,-227.86183949999997
2485,2894,0.01521405,-0.00568519,1925.739565,51.14935299999999,-251.74341599999997
2486,2895,0.012855249999999999,-0.0056894,1925.739565,46.277984599999996,-275.625
2487,2896,0.01079735,-0.005595595,1925.739565,41.406618099999996,-299.5065765
2488,2897,0.010028249999999999,-0.005716995,1925.739565,36.535251599999995,-323.388153
2489,2898,0.010194700000000001,-0.005692875,1925.739565,31.6638832,-347.269745
2490,2899,0.011761649999999998,-0.005870574999999999,1925.739565,26.7925167,-371.1513215
2491,2900,0.0144662,-0.00585,1925.739565,21.9211502,-395.032898
2492,2901,0.017278099999999998,-0.005780495,1925.739565,17.049784199999998,-418.9144745
2493,2902,0.0225314,-0.005589655,1925.739565,12.1784177,-442.796051
2494,2903,0.0256761,-0.00295766,1925.739565,7.30705118,-466.67762749999997
2495,2904,0.028584400000000003,-0.0008031749999999999,1925.739565,2.43568468,-490.559204
2496,2905,0.042669,-0.00831713,1900.6354350000001,90.120285,-60.690788250000004
2497,2906,0.038377549999999996,-0.0074678850000000005,1900.6354350000001,85.2489166,-84.5723686
2498,2907,0.0339812,-0.00697716,1900.6354350000001,80.377552,-108.45394885000002
2499,2908,0.0303118,-0.006309555,1900.6354350000001,75.50618739999999,-132.335529
2500,2909,0.026760399999999997,-0.005963305,1900.6354350000001,70.634819,-156.2171095
2501,2910,0.023393650000000002,-0.00549096,1900.6354350000001,65.7634525,-180.098686
2502,2911,0.02021725,-0.00528467,1900.6354350000001,60.892086,-203.9802625
2503,2912,0.0170659,-0.004970624999999999,1900.6354350000001,56.0207195,-227.86183949999997
2504,2913,0.014270749999999999,-0.0049066000000000005,1900.6354350000001,51.14935299999999,-251.74341599999997
2505,2914,0.011527599999999999,-0.004718735,1900.6354350000001,46.277984599999996,-275.625
2506,2915,0.009640095000000001,-0.00479953,1900.6354350000001,41.406618099999996,-299.5065765
2507,2916,0.00828373,-0.004704085,1900.6354350000001,36.535251599999995,-323.388153
2508,2917,0.008779915,-0.00493508,1900.6354350000001,31.6638832,-347.269745
2509,2918,0.01025705,-0.00489185,1900.6354350000001,26.7925167,-371.1513215
2510,2919,0.01305005,-0.00528298,1900.6354350000001,21.9211502,-395.032898
2511,2920,0.016864949999999997,-0.00524561,1900.6354350000001,17.049784199999998,-418.9144745
2512,2921,0.02083225,-0.005687665,1900.6354350000001,12.1784177,-442.796051
2513,2922,0.029432600000000003,-0.00557204,1900.6354350000001,7.30705118,-466.67762749999997
2514,2923,0.0331528,-0.0003197835,1900.6354350000001,2.43568468,-490.559204
2515,2924,0.04108215,-0.00736734,1875.53125,90.120285,-60.690788250000004
2516,2925,0.0364848,-0.006893504999999999,1875.53125,85.2489166,-84.5723686
2517,2926,0.032512,-0.00589257,1875.53125,80.377552,-108.45394885000002
2518,2927,0.0289381,-0.0054981349999999995,1875.53125,75.50618739999999,-132.335529
2519,2928,0.0254902,-0.004869415,1875.53125,70.634819,-156.2171095
2520,2929,0.0222736,-0.00459905,1875.53125,65.7634525,-180.098686
2521,2930,0.019045600000000003,-0.004176825,1875.53125,60.892086,-203.9802625
2522,2931,0.0160458,-0.004041009999999999,1875.53125,56.0207195,-227.86183949999997
2523,2932,0.013003149999999998,-0.0037645450000000002,1875.53125,51.14935299999999,-251.74341599999997
2524,2933,0.0103827,-0.00377085,1875.53125,46.277984599999996,-275.625
2525,2934,0.00788355,-0.003598765,1875.53125,41.406618099999996,-299.5065765
2526,2935,0.006710505,-0.0037579099999999997,1875.53125,36.535251599999995,-323.388153
2527,2936,0.00659031,-0.0036452000000000003,1875.53125,31.6638832,-347.269745
2528,2937,0.008698215,-0.003996435,1875.53125,26.7925167,-371.1513215
2529,2938,0.01132685,-0.0038872100000000003,1875.53125,21.9211502,-395.032898
2530,2939,0.015256500000000001,-0.004602445,1875.53125,17.049784199999998,-418.9144745
2531,2940,0.01979865,-0.004397135,1875.53125,12.1784177,-442.796051
2532,2941,0.02604235,-0.00632547,1875.53125,7.30705118,-466.67762749999997
2533,2942,0.04054515,-0.00501257,1875.53125,2.43568468,-490.559204
2534,2943,0.045247350000000006,-0.002337855,1850.427065,90.120285,-60.690788250000004
2535,2944,0.042197399999999996,-0.004032865,1850.427065,85.2489166,-84.5723686
2536,2945,0.03946545,-0.00584434,1850.427065,80.377552,-108.45394885000002
2537,2946,0.0364193,-0.00699339,1850.427065,75.50618739999999,-132.335529
2538,2947,0.03356165,-0.008181885,1850.427065,70.634819,-156.2171095
2539,2948,0.03048005,-0.008856059999999999,1850.427065,65.7634525,-180.098686
2540,2949,0.02769795,-0.009591275,1850.427065,60.892086,-203.9802625
2541,2950,0.02475765,-0.0098559,1850.427065,56.0207195,-227.86183949999997
2542,2951,0.022354350000000002,-0.0102238,1850.427065,51.14935299999999,-251.74341599999997
2543,2952,0.0198674,-0.01010765,1850.427065,46.277984599999996,-275.625
2544,2953,0.0183057,-0.0101464,1850.427065,41.406618099999996,-299.5065765
2545,2954,0.01673185,-0.009636555000000002,1850.427065,36.535251599999995,-323.388153
2546,2955,0.01650795,-0.009341974999999999,1850.427065,31.6638832,-347.269745
2547,2956,0.0161958,-0.0083891,1850.427065,26.7925167,-371.1513215
2548,2957,0.017287900000000002,-0.007724,1850.427065,21.9211502,-395.032898
2549,2958,0.01794875,-0.00621786,1850.427065,17.049784199999998,-418.9144745
2550,2959,0.019844850000000004,-0.005129835,1850.427065,12.1784177,-442.796051
2551,2960,0.0207313,-0.0026261649999999997,1850.427065,7.30705118,-466.67762749999997
2552,2961,0.02552145,-0.0011564750000000001,1850.427065,2.43568468,-490.559204
2553,2962,0.0481902,-0.00204271,1825.3229350000001,90.120285,-60.690788250000004
2554,2963,0.04498535000000001,-0.003797725,1825.3229350000001,85.2489166,-84.5723686
2555,2964,0.0412077,-0.00505168,1825.3229350000001,80.377552,-108.45394885000002
2556,2965,0.0377645,-0.006311885,1825.3229350000001,75.50618739999999,-132.335529
2557,2966,0.03407755,-0.0071027899999999995,1825.3229350000001,70.634819,-156.2171095
2558,2967,0.0306329,-0.00793474,1825.3229350000001,65.7634525,-180.098686
2559,2968,0.02707255,-0.008339195,1825.3229350000001,60.892086,-203.9802625
2560,2969,0.0238868,-0.008822145,1825.3229350000001,56.0207195,-227.86183949999997
2561,2970,0.020714949999999996,-0.008887325,1825.3229350000001,51.14935299999999,-251.74341599999997
2562,2971,0.018262550000000002,-0.00907477,1825.3229350000001,46.277984599999996,-275.625
2563,2972,0.016037950000000002,-0.008806425,1825.3229350000001,41.406618099999996,-299.5065765
2564,2973,0.015167600000000002,-0.008714530000000002,1825.3229350000001,36.535251599999995,-323.388153
2565,2974,0.0146947,-0.008082825,1825.3229350000001,31.6638832,-347.269745
2566,2975,0.01590795,-0.007691755,1825.3229350000001,26.7925167,-371.1513215
2567,2976,0.0171209,-0.006660849999999999,1825.3229350000001,21.9211502,-395.032898
2568,2977,0.0196677,-0.005933239999999999,1825.3229350000001,17.049784199999998,-418.9144745
2569,2978,0.02151215,-0.004545034999999999,1825.3229350000001,12.1784177,-442.796051
2570,2979,0.025353300000000002,-0.0034392750000000003,1825.3229350000001,7.30705118,-466.67762749999997
2571,2980,0.0263534,-0.00389323,1825.3229350000001,2.43568468,-490.559204
2572,2981,0.0514539,-0.002641185,1800.21875,90.120285,-60.690788250000004
2573,2982,0.0471215,-0.0039172700000000005,1800.21875,85.2489166,-84.5723686
2574,2983,0.04321615,-0.005031535,1800.21875,80.377552,-108.45394885000002
2575,2984,0.03899175,-0.005863419999999999,1800.21875,75.50618739999999,-132.335529
2576,2985,0.035002899999999997,-0.0066901,1800.21875,70.634819,-156.2171095
2577,2986,0.0308858,-0.007162965,1800.21875,65.7634525,-180.098686
2578,2987,0.02703515,-0.0076885849999999995,1800.21875,60.892086,-203.9802625
2579,2988,0.02321375,-0.007871075,1800.21875,56.0207195,-227.86183949999997
2580,2989,0.01986385,-0.00814576,1800.21875,51.14935299999999,-251.74341599999997
2581,2990,0.0168067,-0.008064715,1800.21875,46.277984599999996,-275.625
2582,2991,0.0148315,-0.008119685,1800.21875,41.406618099999996,-299.5065765
2583,2992,0.013604100000000001,-0.007755455,1800.21875,36.535251599999995,-323.388153
2584,2993,0.01427105,-0.007581905,1800.21875,31.6638832,-347.269745
2585,2994,0.0154848,-0.006900544999999999,1800.21875,26.7925167,-371.1513215
2586,2995,0.018202799999999998,-0.006451465,1800.21875,21.9211502,-395.032898
2587,2996,0.020615349999999998,-0.005534125,1800.21875,17.049784199999998,-418.9144745
2588,2997,0.02398435,-0.00473657,1800.21875,12.1784177,-442.796051
2589,2998,0.026312150000000003,-0.00445129,1800.21875,7.30705118,-466.67762749999997
2590,2999,0.026751899999999995,-0.002846345,1800.21875,2.43568468,-490.559204
2591,3000,0.053331699999999996,-0.00365244,1775.114565,90.120285,-60.690788250000004
2592,3001,0.049121849999999995,-0.0044131050000000005,1775.114565,85.2489166,-84.5723686
2593,3002,0.04462785,-0.0052181499999999995,1775.114565,80.377552,-108.45394885000002
2594,3003,0.04024105,-0.00592439,1775.114565,75.50618739999999,-132.335529
2595,3004,0.03569165,-0.006392355,1775.114565,70.634819,-156.2171095
2596,3005,0.03134655,-0.0068750849999999995,1775.114565,65.7634525,-180.098686
2597,3006,0.0269977,-0.007096105,1775.114565,60.892086,-203.9802625
2598,3007,0.02294665,-0.007379905,1775.114565,56.0207195,-227.86183949999997
2599,3008,0.019138950000000002,-0.007411245,1775.114565,51.14935299999999,-251.74341599999997
2600,3009,0.01599505,-0.007538485,1775.114565,46.277984599999996,-275.625
2601,3010,0.013631250000000001,-0.00737762,1775.114565,41.406618099999996,-299.5065765
2602,3011,0.012987450000000001,-0.0073536650000000005,1775.114565,36.535251599999995,-323.388153
2603,3012,0.01352735,-0.00695037,1775.114565,31.6638832,-347.269745
2604,3013,0.015969700000000003,-0.00672401,1775.114565,26.7925167,-371.1513215
2605,3014,0.018518600000000003,-0.006058935,1775.114565,21.9211502,-395.032898
2606,3015,0.021932399999999998,-0.005510085,1775.114565,17.049784199999998,-418.9144745
2607,3016,0.024817699999999998,-0.004867955,1775.114565,12.1784177,-442.796051
2608,3017,0.02683625,-0.00372484,1775.114565,7.30705118,-466.67762749999997
2609,3018,0.028926550000000002,-0.002412625,1775.114565,2.43568468,-490.559204
2610,3019,0.054605200000000007,-0.00435115,1750.0104350000001,90.120285,-60.690788250000004
2611,3020,0.0503796,-0.005084575,1750.0104350000001,85.2489166,-84.5723686
2612,3021,0.045764700000000005,-0.005644285000000001,1750.0104350000001,80.377552,-108.45394885000002
2613,3022,0.04097655,-0.006052564999999999,1750.0104350000001,75.50618739999999,-132.335529
2614,3023,0.036293549999999994,-0.006421455,1750.0104350000001,70.634819,-156.2171095
2615,3024,0.0315543,-0.006600679999999999,1750.0104350000001,65.7634525,-180.098686
2616,3025,0.0270357,-0.00681201,1750.0104350000001,60.892086,-203.9802625
2617,3026,0.02267375,-0.006869435,1750.0104350000001,56.0207195,-227.86183949999997
2618,3027,0.018663100000000002,-0.006985245,1750.0104350000001,51.14935299999999,-251.74341599999997
2619,3028,0.0152482,-0.00694564,1750.0104350000001,46.277984599999996,-275.625
2620,3029,0.012925349999999999,-0.006988585,1750.0104350000001,41.406618099999996,-299.5065765
2621,3030,0.01209215,-0.006811465,1750.0104350000001,36.535251599999995,-323.388153
2622,3031,0.013484,-0.00674784,1750.0104350000001,31.6638832,-347.269745
2623,3032,0.01571015,-0.0063288300000000006,1750.0104350000001,26.7925167,-371.1513215
2624,3033,0.019244300000000002,-0.00602272,1750.0104350000001,21.9211502,-395.032898
2625,3034,0.02240945,-0.005308905,1750.0104350000001,17.049784199999998,-418.9144745
2626,3035,0.0254435,-0.004478335,1750.0104350000001,12.1784177,-442.796051
2627,3036,0.028291049999999998,-0.00328362,1750.0104350000001,7.30705118,-466.67762749999997
2628,3037,0.030152699999999998,-0.0016123,1750.0104350000001,2.43568468,-490.559204
2629,3038,0.055712649999999996,-0.00507439,1724.90625,90.120285,-60.690788250000004
2630,3039,0.051134799999999994,-0.0057333950000000005,1724.90625,85.2489166,-84.5723686
2631,3040,0.04632069999999999,-0.00608294,1724.90625,80.377552,-108.45394885000002
2632,3041,0.041425199999999995,-0.006337425000000001,1724.90625,75.50618739999999,-132.335529
2633,3042,0.03641464999999999,-0.006404885000000001,1724.90625,70.634819,-156.2171095
2634,3043,0.03161415,-0.006475465,1724.90625,65.7634525,-180.098686
2635,3044,0.026876699999999996,-0.006473545,1724.90625,60.892086,-203.9802625
2636,3045,0.0223533,-0.00649648,1724.90625,56.0207195,-227.86183949999997
2637,3046,0.01822115,-0.006485115,1724.90625,51.14935299999999,-251.74341599999997
2638,3047,0.0145798,-0.006506735,1724.90625,46.277984599999996,-275.625
2639,3048,0.0121415,-0.00647247,1724.90625,41.406618099999996,-299.5065765
2640,3049,0.0115353,-0.006482955,1724.90625,36.535251599999995,-323.388153
2641,3050,0.01276445,-0.00633217,1724.90625,31.6638832,-347.269745
2642,3051,0.01594555,-0.00623971,1724.90625,26.7925167,-371.1513215
2643,3052,0.01913725,-0.00572421,1724.90625,21.9211502,-395.032898
2644,3053,0.02305165,-0.00523757,1724.90625,17.049784199999998,-418.9144745
2645,3054,0.026432200000000003,-0.004046485,1724.90625,12.1784177,-442.796051
2646,3055,0.029241749999999997,-0.00276181,1724.90625,7.30705118,-466.67762749999997
2647,3056,0.03248495,-0.0009214830000000001,1724.90625,2.43568468,-490.559204
2648,3057,0.0563606,-0.0058905450000000005,1699.802065,90.120285,-60.690788250000004
2649,3058,0.05150945,-0.00632984,1699.802065,85.2489166,-84.5723686
2650,3059,0.046469800000000006,-0.006589735,1699.802065,80.377552,-108.45394885000002
2651,3060,0.0412218,-0.00649195,1699.802065,75.50618739999999,-132.335529
2652,3061,0.03626650000000001,-0.00638203,1699.802065,70.634819,-156.2171095
2653,3062,0.0312784,-0.006246160000000001,1699.802065,65.7634525,-180.098686
2654,3063,0.026497950000000006,-0.0061065649999999996,1699.802065,60.892086,-203.9802625
2655,3064,0.021943300000000002,-0.006036055,1699.802065,56.0207195,-227.86183949999997
2656,3065,0.017579650000000002,-0.00595656,1699.802065,51.14935299999999,-251.74341599999997
2657,3066,0.013970900000000001,-0.005961885,1699.802065,46.277984599999996,-275.625
2658,3067,0.0112364,-0.005950225,1699.802065,41.406618099999996,-299.5065765
2659,3068,0.01060205,-0.005984985,1699.802065,36.535251599999995,-323.388153
2660,3069,0.012303,-0.00599625,1699.802065,31.6638832,-347.269745
2661,3070,0.01517405,-0.005879545,1699.802065,26.7925167,-371.1513215
2662,3071,0.01955075,-0.00574946,1699.802065,21.9211502,-395.032898
2663,3072,0.0232374,-0.004877795,1699.802065,17.049784199999998,-418.9144745
2664,3073,0.027445999999999998,-0.00408152,1699.802065,12.1784177,-442.796051
2665,3074,0.03119105,-0.002133405,1699.802065,7.30705118,-466.67762749999997
2666,3075,0.033984799999999996,-0.0003487065,1699.802065,2.43568468,-490.559204
2667,3076,0.0567786,-0.006724485,1674.6979350000001,90.120285,-60.690788250000004
2668,3077,0.0514532,-0.00714703,1674.6979350000001,85.2489166,-84.5723686
2669,3078,0.045768050000000005,-0.006831,1674.6979350000001,80.377552,-108.45394885000002
2670,3079,0.0407226,-0.0065134500000000005,1674.6979350000001,75.50618739999999,-132.335529
2671,3080,0.03553755,-0.006183935,1674.6979350000001,70.634819,-156.2171095
2672,3081,0.0306589,-0.005825815,1674.6979350000001,65.7634525,-180.098686
2673,3082,0.0258803,-0.00562765,1674.6979350000001,60.892086,-203.9802625
2674,3083,0.02121435,-0.005384475,1674.6979350000001,56.0207195,-227.86183949999997
2675,3084,0.01697615,-0.005337465,1674.6979350000001,51.14935299999999,-251.74341599999997
2676,3085,0.0129637,-0.005225270000000001,1674.6979350000001,46.277984599999996,-275.625
2677,3086,0.01033015,-0.0053155749999999995,1674.6979350000001,41.406618099999996,-299.5065765
2678,3087,0.009389455,-0.005310555,1674.6979350000001,36.535251599999995,-323.388153
2679,3088,0.01109825,-0.005468015,1674.6979350000001,31.6638832,-347.269745
2680,3089,0.014746400000000002,-0.0055001749999999995,1674.6979350000001,26.7925167,-371.1513215
2681,3090,0.01859285,-0.005419200000000001,1674.6979350000001,21.9211502,-395.032898
2682,3091,0.02416285,-0.0052721899999999995,1674.6979350000001,17.049784199999998,-418.9144745
2683,3092,0.028345250000000002,-0.0036695,1674.6979350000001,12.1784177,-442.796051
2684,3093,0.03282525,-0.0023743,1674.6979350000001,7.30705118,-466.67762749999997
2685,3094,0.03691335,0.00038082000000000003,1674.6979350000001,2.43568468,-490.559204
2686,3095,0.056704599999999994,-0.008154560000000002,1649.59375,90.120285,-60.690788250000004
2687,3096,0.05001185,-0.007468064999999999,1649.59375,85.2489166,-84.5723686
2688,3097,0.04485305,-0.00682959,1649.59375,80.377552,-108.45394885000002
2689,3098,0.039442450000000004,-0.00626147,1649.59375,75.50618739999999,-132.335529
2690,3099,0.0345505,-0.00562705,1649.59375,70.634819,-156.2171095
2691,3100,0.029678799999999998,-0.00525864,1649.59375,65.7634525,-180.098686
2692,3101,0.0249448,-0.004807280000000001,1649.59375,60.892086,-203.9802625
2693,3102,0.0204371,-0.00464604,1649.59375,56.0207195,-227.86183949999997
2694,3103,0.0159408,-0.004382860000000001,1649.59375,51.14935299999999,-251.74341599999997
2695,3104,0.0121184,-0.004422595,1649.59375,46.277984599999996,-275.625
2696,3105,0.008775044999999999,-0.0043203,1649.59375,41.406618099999996,-299.5065765
2697,3106,0.007973375,-0.004547775,1649.59375,36.535251599999995,-323.388153
2698,3107,0.009643335,-0.00456712,1649.59375,31.6638832,-347.269745
2699,3108,0.01322405,-0.004916149999999999,1649.59375,26.7925167,-371.1513215
2700,3109,0.01819825,-0.004988335,1649.59375,21.9211502,-395.032898
2701,3110,0.0227649,-0.005082695,1649.59375,17.049784199999998,-418.9144745
2702,3111,0.030315750000000002,-0.005013985,1649.59375,12.1784177,-442.796051
2703,3112,0.0351877,-0.0019310199999999999,1649.59375,7.30705118,-466.67762749999997
2704,3113,0.0390615,0.0003065365,1649.59375,2.43568468,-490.559204
2705,3114,0.053960949999999994,-0.0085805,1624.489565,90.120285,-60.690788250000004
2706,3115,0.04857095,-0.0072612349999999996,1624.489565,85.2489166,-84.5723686
2707,3116,0.0429037,-0.0064405,1624.489565,80.377552,-108.45394885000002
2708,3117,0.03800855,-0.005438945000000001,1624.489565,75.50618739999999,-132.335529
2709,3118,0.0331458,-0.004889585,1624.489565,70.634819,-156.2171095
2710,3119,0.028464350000000003,-0.0041991749999999994,1624.489565,65.7634525,-180.098686
2711,3120,0.0239104,-0.003895745,1624.489565,60.892086,-203.9802625
2712,3121,0.0193397,-0.00345724,1624.489565,56.0207195,-227.86183949999997
2713,3122,0.01506275,-0.0033878099999999998,1624.489565,51.14935299999999,-251.74341599999997
2714,3123,0.0107493,-0.003151685,1624.489565,46.277984599999996,-275.625
2715,3124,0.007477315,-0.003314765,1624.489565,41.406618099999996,-299.5065765
2716,3125,0.00566117,-0.003237325,1624.489565,36.535251599999995,-323.388153
2717,3126,0.00782609,-0.003643505,1624.489565,31.6638832,-347.269745
2718,3127,0.0116502,-0.00368105,1624.489565,26.7925167,-371.1513215
2719,3128,0.0163146,-0.004348754999999999,1624.489565,21.9211502,-395.032898
2720,3129,0.022247799999999998,-0.0044534,1624.489565,17.049784199999998,-418.9144745
2721,3130,0.027719949999999997,-0.005245275,1624.489565,12.1784177,-442.796051
2722,3131,0.03919705,-0.0053225,1624.489565,7.30705118,-466.67762749999997
2723,3132,0.04441265,0.0010344885,1624.489565,2.43568468,-490.559204
2724,3133,0.051644050000000004,-0.007535375,1599.3854350000001,90.120285,-60.690788250000004
2725,3134,0.0459625,-0.006609625,1599.3854350000001,85.2489166,-84.5723686
2726,3135,0.040956,-0.005131995,1599.3854350000001,80.377552,-108.45394885000002
2727,3136,0.03623225,-0.00443517,1599.3854350000001,75.50618739999999,-132.335529
2728,3137,0.03164425,-0.0034917200000000002,1599.3854350000001,70.634819,-156.2171095
2729,3138,0.0271994,-0.0030491,1599.3854350000001,65.7634525,-180.098686
2730,3139,0.02273735,-0.0024327949999999997,1599.3854350000001,60.892086,-203.9802625
2731,3140,0.0184024,-0.002235755,1599.3854350000001,56.0207195,-227.86183949999997
2732,3141,0.0139832,-0.001860735,1599.3854350000001,51.14935299999999,-251.74341599999997
2733,3142,0.00981013,-0.00190629,1599.3854350000001,46.277984599999996,-275.625
2734,3143,0.005630095,-0.0017151549999999999,1599.3854350000001,41.406618099999996,-299.5065765
2735,3144,0.00353631,-0.0020147150000000003,1599.3854350000001,36.535251599999995,-323.388153
2736,3145,0.0054576699999999995,-0.00195414,1599.3854350000001,31.6638832,-347.269745
2737,3146,0.009904935,-0.00256212,1599.3854350000001,26.7925167,-371.1513215
2738,3147,0.01462395,-0.002572835,1599.3854350000001,21.9211502,-395.032898
2739,3148,0.02005005,-0.00371458,1599.3854350000001,17.049784199999998,-418.9144745
2740,3149,0.026455799999999998,-0.00368969,1599.3854350000001,12.1784177,-442.796051
2741,3150,0.03417005,-0.0064598,1599.3854350000001,7.30705118,-466.67762749999997
2742,3151,0.05284610000000001,-0.005209425,1599.3854350000001,2.43568468,-490.559204
2743,3152,0.05520675,-0.00222416,1574.28125,90.120285,-60.690788250000004
2744,3153,0.05079505000000001,-0.0040989849999999994,1574.28125,85.2489166,-84.5723686
2745,3154,0.0468504,-0.0059390350000000005,1574.28125,80.377552,-108.45394885000002
2746,3155,0.04259045,-0.007228245,1574.28125,75.50618739999999,-132.335529
2747,3156,0.0383878,-0.00824031,1574.28125,70.634819,-156.2171095
2748,3157,0.034164349999999996,-0.009006455,1574.28125,65.7634525,-180.098686
2749,3158,0.030000400000000003,-0.009492114999999999,1574.28125,60.892086,-203.9802625
2750,3159,0.026082900000000006,-0.009853279999999999,1574.28125,56.0207195,-227.86183949999997
2751,3160,0.02242565,-0.00995,1574.28125,51.14935299999999,-251.74341599999997
2752,3161,0.0194632,-0.009979705,1574.28125,46.277984599999996,-275.625
2753,3162,0.0171995,-0.009704455,1574.28125,41.406618099999996,-299.5065765
2754,3163,0.01638655,-0.009393104999999999,1574.28125,36.535251599999995,-323.388153
2755,3164,0.01659805,-0.008668809999999999,1574.28125,31.6638832,-347.269745
2756,3165,0.018275450000000002,-0.00789051,1574.28125,26.7925167,-371.1513215
2757,3166,0.02053115,-0.00661396,1574.28125,21.9211502,-395.032898
2758,3167,0.02314285,-0.00506126,1574.28125,17.049784199999998,-418.9144745
2759,3168,0.0265224,-0.003274305,1574.28125,12.1784177,-442.796051
2760,3169,0.028960800000000002,-0.0001425482,1574.28125,7.30705118,-466.67762749999997
2761,3170,0.03695695,0.0015826850000000001,1574.28125,2.43568468,-490.559204
2762,3171,0.058219999999999994,-0.00185381,1549.177065,90.120285,-60.690788250000004
2763,3172,0.05383160000000001,-0.0036132350000000002,1549.177065,85.2489166,-84.5723686
2764,3173,0.04853575,-0.00502185,1549.177065,80.377552,-108.45394885000002
2765,3174,0.0437437,-0.006093235000000001,1549.177065,75.50618739999999,-132.335529
2766,3175,0.03873705,-0.0069485,1549.177065,70.634819,-156.2171095
2767,3176,0.0338818,-0.0075172550000000005,1549.177065,65.7634525,-180.098686
2768,3177,0.0291243,-0.007967815,1549.177065,60.892086,-203.9802625
2769,3178,0.02456805,-0.008195315,1549.177065,56.0207195,-227.86183949999997
2770,3179,0.020415449999999998,-0.008353165,1549.177065,51.14935299999999,-251.74341599999997
2771,3180,0.01686845,-0.00829207,1549.177065,46.277984599999996,-275.625
2772,3181,0.014591799999999999,-0.00819633,1549.177065,41.406618099999996,-299.5065765
2773,3182,0.0138636,-0.00781297,1549.177065,36.535251599999995,-323.388153
2774,3183,0.015335200000000002,-0.00742869,1549.177065,31.6638832,-347.269745
2775,3184,0.01797385,-0.00659364,1549.177065,26.7925167,-371.1513215
2776,3185,0.02153455,-0.0057827550000000005,1549.177065,21.9211502,-395.032898
2777,3186,0.025803150000000004,-0.004368325,1549.177065,17.049784199999998,-418.9144745
2778,3187,0.029062949999999997,-0.0029874100000000002,1549.177065,12.1784177,-442.796051
2779,3188,0.03537815,-0.001121515,1549.177065,7.30705118,-466.67762749999997
2780,3189,0.036175200000000005,-0.00238357,1549.177065,2.43568468,-490.559204
2781,3190,0.0619285,-0.00255045,1524.0729350000001,90.120285,-60.690788250000004
2782,3191,0.05575535000000001,-0.00396834,1524.0729350000001,85.2489166,-84.5723686
2783,3192,0.0504178,-0.004748385,1524.0729350000001,80.377552,-108.45394885000002
2784,3193,0.04469145,-0.00559287,1524.0729350000001,75.50618739999999,-132.335529
2785,3194,0.0392413,-0.00604833,1524.0729350000001,70.634819,-156.2171095
2786,3195,0.033825,-0.006482555,1524.0729350000001,65.7634525,-180.098686
2787,3196,0.02857685,-0.006714744999999999,1524.0729350000001,60.892086,-203.9802625
2788,3197,0.02353115,-0.006910415,1524.0729350000001,56.0207195,-227.86183949999997
2789,3198,0.01887035,-0.0069660650000000005,1524.0729350000001,51.14935299999999,-251.74341599999997
2790,3199,0.0149286,-0.0069977,1524.0729350000001,46.277984599999996,-275.625
2791,3200,0.012369100000000001,-0.006871025,1524.0729350000001,41.406618099999996,-299.5065765
2792,3201,0.0123094,-0.006760035,1524.0729350000001,36.535251599999995,-323.388153
2793,3202,0.01441715,-0.006361365,1524.0729350000001,31.6638832,-347.269745
2794,3203,0.01842055,-0.006086795,1524.0729350000001,26.7925167,-371.1513215
2795,3204,0.02287955,-0.005148815,1524.0729350000001,21.9211502,-395.032898
2796,3205,0.027457099999999998,-0.0046568849999999995,1524.0729350000001,17.049784199999998,-418.9144745
2797,3206,0.032809950000000004,-0.002987515,1524.0729350000001,12.1784177,-442.796051
2798,3207,0.03583575,-0.00325869,1524.0729350000001,7.30705118,-466.67762749999997
2799,3208,0.03701260000000001,-0.0011925949999999999,1524.0729350000001,2.43568468,-490.559204
2800,3209,0.06336354999999999,-0.0043520799999999995,1498.96875,90.120285,-60.690788250000004
2801,3210,0.05749335,-0.00447627,1498.96875,85.2489166,-84.5723686
2802,3211,0.0513213,-0.00518319,1498.96875,80.377552,-108.45394885000002
2803,3212,0.0453159,-0.005259125,1498.96875,75.50618739999999,-132.335529
2804,3213,0.039452499999999995,-0.0055431049999999996,1498.96875,70.634819,-156.2171095
2805,3214,0.03370405,-0.00560799,1498.96875,65.7634525,-180.098686
2806,3215,0.02810895,-0.005724315,1498.96875,60.892086,-203.9802625
2807,3216,0.022730350000000003,-0.005762659999999999,1498.96875,56.0207195,-227.86183949999997
2808,3217,0.0176545,-0.00580897,1498.96875,51.14935299999999,-251.74341599999997
2809,3218,0.013332950000000001,-0.00580653,1498.96875,46.277984599999996,-275.625
2810,3219,0.01060735,-0.005823135,1498.96875,41.406618099999996,-299.5065765
2811,3220,0.0107335,-0.005739075,1498.96875,36.535251599999995,-323.388153
2812,3221,0.01397985,-0.00575863,1498.96875,31.6638832,-347.269745
2813,3222,0.018280150000000002,-0.005419425,1498.96875,26.7925167,-371.1513215
2814,3223,0.0238366,-0.0054765000000000005,1498.96875,21.9211502,-395.032898
2815,3224,0.02893725,-0.0042935149999999995,1498.96875,17.049784199999998,-418.9144745
2816,3225,0.03384910000000001,-0.00439004,1498.96875,12.1784177,-442.796051
2817,3226,0.037208500000000005,-0.00218768,1498.96875,7.30705118,-466.67762749999997
2818,3227,0.039111950000000006,-0.00088134,1498.96875,2.43568468,-490.559204
2819,3228,0.06392695000000001,-0.005421355,1473.864565,90.120285,-60.690788250000004
2820,3229,0.0579173,-0.0058375200000000006,1473.864565,85.2489166,-84.5723686
2821,3230,0.05130485,-0.005301275,1473.864565,80.377552,-108.45394885000002
2822,3231,0.04528775,-0.005254815,1473.864565,75.50618739999999,-132.335529
2823,3232,0.03917775,-0.0049686850000000005,1473.864565,70.634819,-156.2171095
2824,3233,0.03332725,-0.004869175,1473.864565,65.7634525,-180.098686
2825,3234,0.0275617,-0.00474676,1473.864565,60.892086,-203.9802625
2826,3235,0.02195035,-0.00469129,1473.864565,56.0207195,-227.86183949999997
2827,3236,0.016662750000000004,-0.00467119,1473.864565,51.14935299999999,-251.74341599999997
2828,3237,0.01190675,-0.00468607,1473.864565,46.277984599999996,-275.625
2829,3238,0.00886179,-0.00473879,1473.864565,41.406618099999996,-299.5065765
2830,3239,0.009315015,-0.00485495,1473.864565,36.535251599999995,-323.388153
2831,3240,0.01275665,-0.0049209300000000004,1473.864565,31.6638832,-347.269745
2832,3241,0.0181394,-0.005202675,1473.864565,26.7925167,-371.1513215
2833,3242,0.0232353,-0.0049911650000000005,1473.864565,21.9211502,-395.032898
2834,3243,0.029979350000000002,-0.0054775250000000004,1473.864565,17.049784199999998,-418.9144745
2835,3244,0.0345069,-0.003626135,1473.864565,12.1784177,-442.796051
2836,3245,0.0389993,-0.00292961,1473.864565,7.30705118,-466.67762749999997
2837,3246,0.041889899999999994,0.0002179965,1473.864565,2.43568468,-490.559204
2838,3247,0.06381685000000001,-0.007345475000000001,1448.7604350000001,90.120285,-60.690788250000004
2839,3248,0.05648375,-0.0062255,1448.7604350000001,85.2489166,-84.5723686
2840,3249,0.05066275,-0.005599705,1448.7604350000001,80.377552,-108.45394885000002
2841,3250,0.044318100000000006,-0.004841705,1448.7604350000001,75.50618739999999,-132.335529
2842,3251,0.03848585,-0.004368830000000001,1448.7604350000001,70.634819,-156.2171095
2843,3252,0.03258155,-0.00396431,1448.7604350000001,65.7634525,-180.098686
2844,3253,0.02683165,-0.003694405,1448.7604350000001,60.892086,-203.9802625
2845,3254,0.0211912,-0.0035344649999999997,1448.7604350000001,56.0207195,-227.86183949999997
2846,3255,0.01568,-0.00344358,1448.7604350000001,51.14935299999999,-251.74341599999997
2847,3256,0.010684450000000002,-0.003475955,1448.7604350000001,46.277984599999996,-275.625
2848,3257,0.00698966,-0.003559755,1448.7604350000001,41.406618099999996,-299.5065765
2849,3258,0.007334535,-0.003766495,1448.7604350000001,36.535251599999995,-323.388153
2850,3259,0.011484649999999999,-0.004059885,1448.7604350000001,31.6638832,-347.269745
2851,3260,0.0164971,-0.004391215,1448.7604350000001,26.7925167,-371.1513215
2852,3261,0.02289045,-0.004956165,1448.7604350000001,21.9211502,-395.032898
2853,3262,0.028045149999999998,-0.00502657,1448.7604350000001,17.049784199999998,-418.9144745
2854,3263,0.03657235,-0.0055977100000000005,1448.7604350000001,12.1784177,-442.796051
2855,3264,0.041096099999999997,-0.002080795,1448.7604350000001,7.30705118,-466.67762749999997
2856,3265,0.0445416,0.0001541851,1448.7604350000001,2.43568468,-490.559204
2857,3266,0.060566699999999994,-0.00785738,1423.65625,90.120285,-60.690788250000004
2858,3267,0.054978950000000006,-0.00633588,1423.65625,85.2489166,-84.5723686
2859,3268,0.04861295,-0.005152465,1423.65625,80.377552,-108.45394885000002
2860,3269,0.04302055,-0.00413772,1423.65625,75.50618739999999,-132.335529
2861,3270,0.0372175,-0.003394085,1423.65625,70.634819,-156.2171095
2862,3271,0.0316008,-0.0028093199999999997,1423.65625,65.7634525,-180.098686
2863,3272,0.0259724,-0.002426205,1423.65625,60.892086,-203.9802625
2864,3273,0.02037945,-0.002149715,1423.65625,56.0207195,-227.86183949999997
2865,3274,0.01489605,-0.00205432,1423.65625,51.14935299999999,-251.74341599999997
2866,3275,0.009533375,-0.00202774,1423.65625,46.277984599999996,-275.625
2867,3276,0.00511892,-0.002192765,1423.65625,41.406618099999996,-299.5065765
2868,3277,0.00496864,-0.002404145,1423.65625,36.535251599999995,-323.388153
2869,3278,0.0093933,-0.002842445,1423.65625,31.6638832,-347.269745
2870,3279,0.01499595,-0.0033059049999999996,1423.65625,26.7925167,-371.1513215
2871,3280,0.0204386,-0.004051555,1423.65625,21.9211502,-395.032898
2872,3281,0.027395700000000002,-0.0047056500000000005,1423.65625,17.049784199999998,-418.9144745
2873,3282,0.0329888,-0.00559273,1423.65625,12.1784177,-442.796051
2874,3283,0.0456064,-0.0061084450000000005,1423.65625,7.30705118,-466.67762749999997
2875,3284,0.0503393,0.0011223515000000001,1423.65625,2.43568468,-490.559204
2876,3285,0.05790925,-0.007030695,1398.552065,90.120285,-60.690788250000004
2877,3286,0.0519094,-0.0056292749999999996,1398.552065,85.248918525,-84.5723686
2878,3287,0.046540349999999994,-0.003948625,1398.552065,80.377553925,-108.45394885000002
2879,3288,0.04113325,-0.0029023800000000004,1398.552065,75.50618739999999,-132.335529
2880,3289,0.0358296,-0.0019396700000000001,1398.552065,70.634819,-156.2171095
2881,3290,0.03048275,-0.00130182,1398.552065,65.7634525,-180.098686
2882,3291,0.025125849999999998,-0.000790579,1398.552065,60.892086,-203.9802625
2883,3292,0.0197572,-0.0005106735000000001,1398.552065,56.0207195,-227.86183949999997
2884,3293,0.014363150000000002,-0.00032784000000000003,1398.552065,51.14935299999999,-251.74341599999997
2885,3294,0.00899869,-0.0003608025,1398.552065,46.277984599999996,-275.625
2886,3295,0.0036756899999999997,-0.00045434800000000003,1398.552065,41.406618099999996,-299.5065765
2887,3296,0.002293265,-0.0007958315,1398.552065,36.535251599999995,-323.388153
2888,3297,0.007472545,-0.001141835,1398.552065,31.663883674999997,-347.269745
2889,3298,0.0129087,-0.00185242,1398.552065,26.792517175,-371.1513215
2890,3299,0.0185907,-0.002380035,1398.552065,21.921150675,-395.032898
2891,3300,0.024435150000000003,-0.00370559,1398.552065,17.049784199999998,-418.9144745
2892,3301,0.03149125,-0.0041505399999999994,1398.552065,12.178417465,-442.796051
2893,3302,0.03949435,-0.00729246,1398.552065,7.307050825000001,-466.67762749999997
2894,3303,0.059996850000000004,-0.006038475,1398.552065,2.435684085,-490.559204
2895,3304,0.0497015,0.011308470000000001,1198.5,-2.4356840876332786,-490.559204
2896,3305,0.0139175,-0.0010979524999999999,1198.5,-7.307050825,-466.67762749999997
2897,3306,0.01918023,-0.00370194,1198.5,-12.178417465,-442.796051
2898,3307,0.03110235,-0.010142390000000001,1198.5,-17.049784199999998,-418.9144745
2899,3308,0.034004599999999996,-0.01122045,1198.5,-21.921150675,-395.032898
2900,3309,0.0385606,-0.01424225,1198.5,-26.792517174999997,-371.1513215
2901,3310,0.038645700000000005,-0.01429165,1198.5,-31.663883674999997,-347.26974500000006
2902,3311,0.040494050000000004,-0.0155243,1198.5,-36.535251599999995,-323.388153
2903,3312,0.0403537,-0.01544155,1198.5,-41.406618099999996,-299.5065765
2904,3313,0.0412408,-0.015974949999999998,1198.5,-46.277984599999996,-275.625
2905,3314,0.0412903,-0.0160039,1198.5,-51.14935299999999,-251.743416
2906,3315,0.0417962,-0.016248699999999998,1198.5,-56.0207195,-227.86183949999997
2907,3316,0.0420972,-0.01647725,1198.5,-60.89208599999999,-203.98026249999998
2908,3317,0.042477100000000004,-0.01661605,1198.5,-65.7634525,-180.09868600000001
2909,3318,0.04319925,-0.017249300000000002,1198.5,-70.634819,-156.2171095
2910,3319,0.043684200000000006,-0.0175304,1198.5,-75.50618739999999,-132.335529
2911,3320,0.045259,-0.01918515,1198.5,-80.377553925,-108.45394885000002
2912,3321,0.045973,-0.020299900000000003,1198.5,-85.24891852500001,-84.5723686
2913,3322,0.048680299999999996,-0.024094499999999998,1198.5,-90.120285,-60.69078825
2914,3323,0.03962035,0.020923950000000004,1173.5,-2.43568468,-490.559204
2915,3324,0.012071469999999999,-0.0025794,1173.5,-7.307051179999999,-466.67762749999997
2916,3325,0.0311947,-0.00999976,1173.5,-12.1784177,-442.796051
2917,3326,0.03500065,-0.01186735,1173.5,-17.049784199999998,-418.9144745
2918,3327,0.0404509,-0.015017899999999997,1173.5,-21.9211502,-395.032898
2919,3328,0.039199200000000003,-0.0147883,1173.5,-26.7925167,-371.1513215
2920,3329,0.041156899999999996,-0.01584025,1173.5,-31.6638832,-347.26974500000006
2921,3330,0.04029555,-0.0156051,1173.5,-36.535251599999995,-323.388153
2922,3331,0.041319850000000005,-0.01607025,1173.5,-41.406618099999996,-299.5065765
2923,3332,0.0410047,-0.01599745,1173.5,-46.277984599999996,-275.625
2924,3333,0.04165555,-0.01622465,1173.5,-51.14935299999999,-251.743416
2925,3334,0.04164835,-0.0162869,1173.5,-56.0207195,-227.86183949999997
2926,3335,0.0421435,-0.01637695,1173.5,-60.89208599999999,-203.98026249999998
2927,3336,0.0423465,-0.0165892,1173.5,-65.7634525,-180.09868600000001
2928,3337,0.04286985,-0.0165864,1173.5,-70.634819,-156.2171095
2929,3338,0.04336115,-0.01711415,1173.5,-75.50618739999999,-132.335529
2930,3339,0.04411875,-0.017193399999999998,1173.5,-80.377552,-108.45394885000002
2931,3340,0.04523585,-0.018837600000000003,1173.5,-85.2489166,-84.5723686
2932,3341,0.046701650000000004,-0.020590800000000003,1173.5,-90.120285,-60.69078825
2933,3342,0.03746705,0.019361549999999998,1148.5,-2.43568468,-490.559204
2934,3343,0.0215688,-0.00048260199999999994,1148.5,-7.307051179999999,-466.67762749999997
2935,3344,0.033849449999999996,-0.01182855,1148.5,-12.1784177,-442.796051
2936,3345,0.04284585,-0.016608150000000002,1148.5,-17.049784199999998,-418.9144745
2937,3346,0.040876949999999995,-0.01659145,1148.5,-21.9211502,-395.032898
2938,3347,0.0427038,-0.016955400000000002,1148.5,-26.7925167,-371.1513215
2939,3348,0.0410484,-0.016471100000000002,1148.5,-31.6638832,-347.26974500000006
2940,3349,0.041844599999999996,-0.0164852,1148.5,-36.535251599999995,-323.388153
2941,3350,0.04113735,-0.01629655,1148.5,-41.406618099999996,-299.5065765
2942,3351,0.041724750000000005,-0.01634165,1148.5,-46.277984599999996,-275.625
2943,3352,0.04147005000000001,-0.0163024,1148.5,-51.14935299999999,-251.743416
2944,3353,0.041947399999999996,-0.01632405,1148.5,-56.0207195,-227.86183949999997
2945,3354,0.0418244,-0.0163242,1148.5,-60.89208599999999,-203.98026249999998
2946,3355,0.0422594,-0.016251800000000004,1148.5,-65.7634525,-180.09868600000001
2947,3356,0.042060349999999996,-0.01622295,1148.5,-70.634819,-156.2171095
2948,3357,0.0425605,-0.015980349999999997,1148.5,-75.50618739999999,-132.335529
2949,3358,0.04224995,-0.016084849999999998,1148.5,-80.377552,-108.45394885000002
2950,3359,0.0435033,-0.016211049999999998,1148.5,-85.2489166,-84.5723686
2951,3360,0.0448402,-0.01855625,1148.5,-90.120285,-60.69078825
2952,3361,0.04931765,0.0180653,1123.5,-2.43568468,-490.559204
2953,3362,0.0376975,-0.00156937165,1123.5,-7.307051179999999,-466.67762749999997
2954,3363,0.04293845,-0.01495145,1123.5,-12.1784177,-442.796051
2955,3364,0.04180095,-0.017902750000000002,1123.5,-17.049784199999998,-418.9144745
2956,3365,0.0435788,-0.017923400000000003,1123.5,-21.9211502,-395.032898
2957,3366,0.042053549999999995,-0.017769550000000002,1123.5,-26.7925167,-371.1513215
2958,3367,0.0424079,-0.017123199999999998,1123.5,-31.6638832,-347.26974500000006
2959,3368,0.0416387,-0.0169469,1123.5,-36.535251599999995,-323.388153
2960,3369,0.041957049999999996,-0.01662715,1123.5,-41.406618099999996,-299.5065765
2961,3370,0.041621000000000005,-0.01656645,1123.5,-46.277984599999996,-275.625
2962,3371,0.04194825,-0.01643255,1123.5,-51.14935299999999,-251.743416
2963,3372,0.0417187,-0.01636775,1123.5,-56.0207195,-227.86183949999997
2964,3373,0.04204655,-0.01627575,1123.5,-60.89208599999999,-203.98026249999998
2965,3374,0.041656200000000004,-0.0161017,1123.5,-65.7634525,-180.09868600000001
2966,3375,0.041990799999999995,-0.01593795,1123.5,-70.634819,-156.2171095
2967,3376,0.04116665,-0.0155532,1123.5,-75.50618739999999,-132.335529
2968,3377,0.04188504999999999,-0.01538465,1123.5,-80.377552,-108.45394885000002
2969,3378,0.04122914999999999,-0.01533365,1123.5,-85.2489166,-84.5723686
2970,3379,0.04547415,-0.016994000000000002,1123.5,-90.120285,-60.69078825
2971,3380,0.07666255,0.01741115,1098.5,-2.43568468,-490.559204
2972,3381,0.056575600000000004,-0.010574695,1098.5,-7.307051179999999,-466.67762749999997
2973,3382,0.042719999999999994,-0.01600035,1098.5,-12.1784177,-442.796051
2974,3383,0.0424662,-0.0165394,1098.5,-17.049784199999998,-418.9144745
2975,3384,0.04241015,-0.018258999999999997,1098.5,-21.9211502,-395.032898
2976,3385,0.04214955,-0.0172507,1098.5,-26.7925167,-371.1513215
2977,3386,0.0421603,-0.0176204,1098.5,-31.6638832,-347.26974500000006
2978,3387,0.04207905,-0.0169212,1098.5,-36.535251599999995,-323.388153
2979,3388,0.0420126,-0.01700935,1098.5,-41.406618099999996,-299.5065765
2980,3389,0.0420532,-0.0166381,1098.5,-46.277984599999996,-275.625
2981,3390,0.04191684999999999,-0.016606250000000003,1098.5,-51.14935299999999,-251.743416
2982,3391,0.0420538,-0.01642395,1098.5,-56.0207195,-227.86183949999997
2983,3392,0.04174735,-0.0162606,1098.5,-60.89208599999999,-203.98026249999998
2984,3393,0.04197515,-0.016181,1098.5,-65.7634525,-180.09868600000001
2985,3394,0.04131045,-0.015827550000000003,1098.5,-70.634819,-156.2171095
2986,3395,0.041811100000000004,-0.01588815,1098.5,-75.50618739999999,-132.335529
2987,3396,0.040858,-0.015382350000000001,1098.5,-80.377552,-108.45394885000002
2988,3397,0.04318835,-0.0161615,1098.5,-85.2489166,-84.5723686
2989,3398,0.0450153,-0.01682855,1098.5,-90.120285,-60.69078825
2990,3399,0.10670774999999999,-0.0007927300000000002,1073.5,-2.43568468,-490.559204
2991,3400,0.05450015,-0.013179199999999999,1073.5,-7.307051179999999,-466.67762749999997
2992,3401,0.0432357,-0.011855850000000001,1073.5,-12.1784177,-442.796051
2993,3402,0.0425478,-0.01662565,1073.5,-17.049784199999998,-418.9144745
2994,3403,0.040929999999999994,-0.015963949999999998,1073.5,-21.9211502,-395.032898
2995,3404,0.042533749999999995,-0.01774945,1073.5,-26.7925167,-371.1513215
2996,3405,0.0418722,-0.0169136,1073.5,-31.6638832,-347.26974500000006
2997,3406,0.04252915,-0.01744175,1073.5,-36.535251599999995,-323.388153
2998,3407,0.04214295,-0.01684155,1073.5,-41.406618099999996,-299.5065765
2999,3408,0.04231235,-0.016942,1073.5,-46.277984599999996,-275.625
3000,3409,0.042144549999999996,-0.01660465,1073.5,-51.14935299999999,-251.743416
3001,3410,0.0420385,-0.016501250000000002,1073.5,-56.0207195,-227.86183949999997
3002,3411,0.0420496,-0.01636705,1073.5,-60.89208599999999,-203.98026249999998
3003,3412,0.0416792,-0.0160948,1073.5,-65.7634525,-180.09868600000001
3004,3413,0.04199005,-0.016219499999999998,1073.5,-70.634819,-156.2171095
3005,3414,0.0414802,-0.015850749999999997,1073.5,-75.50618739999999,-132.335529
3006,3415,0.0429669,-0.0166549,1073.5,-80.377552,-108.45394885000002
3007,3416,0.04358185,-0.016564699999999998,1073.5,-85.2489166,-84.5723686
3008,3417,0.04974735000000001,-0.018969899999999998,1073.5,-90.120285,-60.69078825
3009,3418,0.0744875,-0.0296223,1048.5,-2.435684085,-490.559204
3010,3419,0.0744417,-0.0296223,1048.5,-7.307050825,-466.67762749999997
3011,3420,0.07439599999999999,-0.0296223,1048.5,-12.178417465,-442.796051
3012,3421,0.07435030000000001,-0.0296223,1048.5,-17.049784199999998,-418.9144745
3013,3422,0.07430465,-0.0296223,1048.5,-21.921150675,-395.032898
3014,3423,0.07425899999999999,-0.0296223,1048.5,-26.792517175,-371.1513215
3015,3424,0.07421335,-0.0296223,1048.5,-31.663883675,-347.26974500000006
3016,3425,0.07416775,-0.0296223,1048.5,-36.535251599999995,-323.388153
3017,3426,0.07412215,-0.0296223,1048.5,-41.406618099999996,-299.5065765
3018,3427,0.0740766,-0.0296223,1048.5,-46.277984599999996,-275.625
3019,3428,0.07403109999999999,-0.0296223,1048.5,-51.14935299999999,-251.743416
3020,3429,0.07398555,-0.0296223,1048.5,-56.0207195,-227.86183949999997
3021,3430,0.07394010000000001,-0.0296223,1048.5,-60.89208599999999,-203.98026249999998
3022,3431,0.07389470000000001,-0.0296223,1048.5,-65.7634525,-180.09868600000001
3023,3432,0.07384925,-0.0296223,1048.5,-70.634819,-156.2171095
3024,3433,0.07380385,-0.0296223,1048.5,-75.50618739999999,-132.335529
3025,3434,0.0737585,-0.0296223,1048.5,-80.377553925,-108.45394885000002
3026,3435,0.07371315,-0.0296223,1048.5,-85.248918525,-84.5723686
3027,3436,0.07366785,-0.0296223,1048.5,-90.120285,-60.69078825
3028,3437,0.00713473,-0.0033920599999999997,2578.447875,100.0139923,-12.1875
3029,3438,0.00981048,-0.00543399,2578.447875,95.04197690000001,-36.5625
3030,3439,0.004889735,-0.0027725650000000003,2553.34375,100.0139923,-12.1875
3031,3440,0.0105062,-0.005771345,2553.34375,95.04197690000001,-36.5625
3032,3441,0.00569209,-0.0023751049999999998,2528.239625,100.0139923,-12.1875
3033,3442,0.01029,-0.005206565,2528.239625,95.04197690000001,-36.5625
3034,3443,0.008256095000000001,-0.002397705,2503.135375,100.0139923,-12.1875
3035,3444,0.0114859,-0.00511327,2503.135375,95.04197690000001,-36.5625
3036,3445,0.01130735,-0.002549515,2478.03125,100.0139923,-12.1875
3037,3446,0.0131405,-0.005347940000000001,2478.03125,95.04197690000001,-36.5625
3038,3447,0.014609100000000002,-0.003037005,2452.927125,100.0139923,-12.1875
3039,3448,0.01529805,-0.005832935,2452.927125,95.04197690000001,-36.5625
3040,3449,0.018389700000000002,-0.004063354999999999,2427.822875,100.0139923,-12.1875
3041,3450,0.0177823,-0.0070341050000000006,2427.822875,95.04197690000001,-36.5625
3042,3451,0.02262575,-0.00519132,2402.71875,100.0139923,-12.1875
3043,3452,0.01711845,-0.00692837,2402.71875,95.04197690000001,-36.5625
3044,3453,0.014437549999999999,-0.0010822709999999999,2377.614625,100.0139923,-12.1875
3045,3454,0.018217349999999997,-0.00308241,2377.614625,95.04197690000001,-36.5625
3046,3455,0.0179882,-0.001108688,2352.510375,100.0139923,-12.1875
3047,3456,0.02043605,-0.003581405,2352.510375,95.04197690000001,-36.5625
3048,3457,0.021573750000000003,-0.0013290849999999998,2327.40625,100.0139923,-12.1875
3049,3458,0.022391849999999998,-0.00366597,2327.40625,95.04197690000001,-36.5625
3050,3459,0.0243344,-0.0016959499999999999,2302.302125,100.0139923,-12.1875
3051,3460,0.024653,-0.0038749400000000003,2302.302125,95.04197690000001,-36.5625
3052,3461,0.0270588,-0.001978035,2277.197875,100.0139923,-12.1875
3053,3462,0.026501649999999998,-0.00421932,2277.197875,95.04197690000001,-36.5625
3054,3463,0.02951745,-0.00240293,2252.09375,100.0139923,-12.1875
3055,3464,0.02850625,-0.004569225,2252.09375,95.04197690000001,-36.5625
3056,3465,0.0321198,-0.00292374,2226.989625,100.0139923,-12.1875
3057,3466,0.0304245,-0.005291405,2226.989625,95.04197690000001,-36.5625
3058,3467,0.03492955,-0.00391265,2201.885375,100.0139923,-12.1875
3059,3468,0.032332650000000004,-0.006211055,2201.885375,95.04197690000001,-36.5625
3060,3469,0.037618399999999996,-0.005574765,2176.78125,100.0139923,-12.1875
3061,3470,0.03411114999999999,-0.007963405,2176.78125,95.04197690000001,-36.5625
3062,3471,0.04095665,-0.007072485,2151.677125,100.0139923,-12.1875
3063,3472,0.0320163,-0.008129495,2151.677125,95.04197690000001,-36.5625
3064,3473,0.03430269999999999,0.0010097015,2126.572875,100.0139923,-12.1875
3065,3474,0.0334688,-0.0009898724999999999,2126.572875,95.04197690000001,-36.5625
3066,3475,0.0374093,0.0002900575,2101.46875,100.0139923,-12.1875
3067,3476,0.0371215,-0.00163251,2101.46875,95.04197690000001,-36.5625
3068,3477,0.04080865,-0.000603174,2076.364625,100.0139923,-12.1875
3069,3478,0.0395085,-0.002479705,2076.364625,95.04197690000001,-36.5625
3070,3479,0.043160199999999996,-0.0014503300000000001,2051.260435,100.0139923,-12.1875
3071,3480,0.0415792,-0.003036205,2051.260435,95.04197690000001,-36.5625
3072,3481,0.045251700000000006,-0.001813435,2026.15625,100.0139923,-12.1875
3073,3482,0.043405650000000004,-0.003628785,2026.15625,95.04197690000001,-36.5625
3074,3483,0.0474914,-0.0023949,2001.052065,100.0139923,-12.1875
3075,3484,0.0448883,-0.004112915,2001.052065,95.04197690000001,-36.5625
3076,3485,0.0492552,-0.00299038,1975.9479350000001,100.0139923,-12.1875
3077,3486,0.046537499999999996,-0.004717839999999999,1975.9479350000001,95.04197690000001,-36.5625
3078,3487,0.0513073,-0.00370053,1950.84375,100.0139923,-12.1875
3079,3488,0.04794885,-0.00566092,1950.84375,95.04197690000001,-36.5625
3080,3489,0.053503999999999996,-0.005061915,1925.739565,100.0139923,-12.1875
3081,3490,0.049271449999999994,-0.00688552,1925.739565,95.04197690000001,-36.5625
3082,3491,0.0551736,-0.007208684999999999,1900.6354350000001,100.0139923,-12.1875
3083,3492,0.050223000000000004,-0.009045270000000001,1900.6354350000001,95.04197690000001,-36.5625
3084,3493,0.05764420000000001,-0.00899364,1875.53125,100.0139923,-12.1875
3085,3494,0.046687599999999996,-0.00942985,1875.53125,95.04197690000001,-36.5625
3086,3495,0.05260835,0.002562145,1850.427065,100.0139923,-12.1875
3087,3496,0.0477435,0.000613795,1850.427065,95.04197690000001,-36.5625
3088,3497,0.0551338,0.0012194100000000002,1825.3229350000001,100.0139923,-12.1875
3089,3498,0.052731650000000005,-0.0001554065,1825.3229350000001,95.04197690000001,-36.5625
3090,3499,0.0582781,-0.0003105915,1800.21875,100.0139923,-12.1875
3091,3500,0.055164450000000004,-0.00170156,1800.21875,95.04197690000001,-36.5625
3092,3501,0.060140799999999994,-0.00157081,1775.114565,100.0139923,-12.1875
3093,3502,0.0570228,-0.00261532,1775.114565,95.04197690000001,-36.5625
3094,3503,0.06173624999999999,-0.002114365,1750.0104350000001,100.0139923,-12.1875
3095,3504,0.0585672,-0.003488405,1750.0104350000001,95.04197690000001,-36.5625
3096,3505,0.06356565,-0.0028664199999999997,1724.90625,100.0139923,-12.1875
3097,3506,0.0596458,-0.00412871,1724.90625,95.04197690000001,-36.5625
3098,3507,0.06475315,-0.00361352,1699.802065,100.0139923,-12.1875
3099,3508,0.060930849999999995,-0.0048692349999999995,1699.802065,95.04197690000001,-36.5625
3100,3509,0.06626035,-0.00442554,1674.6979350000001,100.0139923,-12.1875
3101,3510,0.061861,-0.00597488,1674.6979350000001,95.04197690000001,-36.5625
3102,3511,0.06787995,-0.006035735,1649.59375,100.0139923,-12.1875
3103,3512,0.0626109,-0.007377505,1649.59375,95.04197690000001,-36.5625
3104,3513,0.06862555000000001,-0.008496155,1624.489565,100.0139923,-12.1875
3105,3514,0.06284965,-0.009810195,1624.489565,95.04197690000001,-36.5625
3106,3515,0.07030375,-0.010458585,1599.3854350000001,100.0139923,-12.1875
3107,3516,0.058126550000000006,-0.01034914,1599.3854350000001,95.04197690000001,-36.5625
3108,3517,0.06676805,0.00302919,1574.28125,100.0139923,-12.1875
3109,3518,0.058917050000000006,0.0011938125,1574.28125,95.04197690000001,-36.5625
3110,3519,0.0686176,0.001084902,1549.177065,100.0139923,-12.1875
3111,3520,0.06493795,0.00027607195,1549.177065,95.04197690000001,-36.5625
3112,3521,0.07148195,-0.0011236785,1524.0729350000001,100.0139923,-12.1875
3113,3522,0.06705005,-0.002089025,1524.0729350000001,95.04197690000001,-36.5625
3114,3523,0.072581,-0.003021215,1498.96875,100.0139923,-12.1875
3115,3524,0.06861225,-0.003472765,1498.96875,95.04197690000001,-36.5625
3116,3525,0.07365545,-0.004086345,1473.864565,100.0139923,-12.1875
3117,3526,0.06952710000000001,-0.005273544999999999,1473.864565,95.04197690000001,-36.5625
3118,3527,0.07508475,-0.00607726,1448.7604350000001,100.0139923,-12.1875
3119,3528,0.0697807,-0.0068207300000000005,1448.7604350000001,95.04197690000001,-36.5625
3120,3529,0.0749961,-0.00874922,1423.65625,100.0139923,-12.1875
3121,3530,0.06967385000000001,-0.009567115000000001,1423.65625,95.04197690000001,-36.5625
3122,3531,0.0760711,-0.01085285,1398.552065,100.0139923,-12.1875
3123,3532,0.06420215000000001,-0.01026697,1398.552065,95.04197690000001,-36.5625
3124,3533,0.048824549999999994,-0.026242349999999998,1198.5,-95.0419769,-36.5625
3125,3534,0.0636102,-0.0354155,1198.5,-100.01399229999998,-12.1875
3126,3535,0.046605350000000004,-0.024626349999999998,1173.5,-95.0419769,-36.5625
3127,3536,0.0701839,-0.0402479,1173.5,-100.01399229999998,-12.1875
3128,3537,0.053782050000000005,-0.02663645,1148.5,-95.0419769,-36.5625
3129,3538,0.07464799999999999,-0.0405391,1148.5,-100.01399229999998,-12.1875
3130,3539,0.05820365000000001,-0.024988500000000004,1123.5,-95.0419769,-36.5625
3131,3540,0.07844770000000001,-0.038376049999999995,1123.5,-100.01399229999998,-12.1875
3132,3541,0.05739735000000001,-0.01933725,1098.5,-95.0419769,-36.5625
3133,3542,0.08393519999999999,-0.0340376,1098.5,-100.01399229999998,-12.1875
3134,3543,0.054993150000000005,-0.0186809,1073.5,-95.0419769,-36.5625
3135,3544,0.0898794,-0.02609155,1073.5,-100.01399229999998,-12.1875
3136,3545,0.07362205000000001,-0.0296223,1048.5,-95.0419769,-36.5625
3137,3546,0.0735759,-0.0296223,1048.5,-100.01399229999998,-12.1875
3138,3547,0.04039980000000001,0.00286045,1398.552065,13.2644758,100.75370025000001
3139,3548,0.043760900000000005,0.003651405,1423.65625,13.2644758,100.75370025000001
3140,3549,0.04166835000000001,0.003348165,1448.7604350000001,13.2644758,100.75370025000001
3141,3550,0.040012099999999995,0.00350924,1473.864565,13.2644758,100.75370025000001
3142,3551,0.0388076,0.0036815800000000003,1498.96875,13.2644758,100.75370025000001
3143,3552,0.0373162,0.003825,1524.0729350000001,13.2644758,100.75370025000001
3144,3553,0.03625215,0.00354127,1549.177065,13.2644758,100.75370025000001
3145,3554,0.03173705,0.004251400000000001,1574.28125,13.2644758,100.75370025000001
3146,3555,0.035948850000000004,0.004620155,1599.3854350000001,13.2644758,100.75370025000001
3147,3556,0.0388557,0.005328825000000001,1624.489565,13.2644758,100.75370025000001
3148,3557,0.03675135,0.005064984999999999,1649.59375,13.2644758,100.75370025000001
3149,3558,0.035190349999999995,0.0050976649999999995,1674.6979350000001,13.2644758,100.75370025000001
3150,3559,0.034407099999999996,0.005172370000000001,1699.802065,13.2644758,100.75370025000001
3151,3560,0.032979900000000006,0.005119965,1724.90625,13.2644758,100.75370025000001
3152,3561,0.0314417,0.0050476900000000005,1750.0104350000001,13.2644758,100.75370025000001
3153,3562,0.0297356,0.005155965,1775.114565,13.2644758,100.75370025000001
3154,3563,0.0282344,0.005141420000000001,1800.21875,13.2644758,100.75370025000001
3155,3564,0.027065149999999996,0.004996270000000001,1825.3229350000001,13.2644758,100.75370025000001
3156,3565,0.0236914,0.005437920000000001,1850.427065,13.2644758,100.75370025000001
3157,3566,0.02880785,0.006141735000000001,1875.53125,13.2644758,100.75370025000001
3158,3567,0.0308159,0.00678259,1900.6354350000001,13.2644758,100.75370025000001
3159,3568,0.02876835,0.00653726,1925.739565,13.2644758,100.75370025000001
3160,3569,0.027309349999999996,0.006573205,1950.84375,13.2644758,100.75370025000001
3161,3570,0.0263826,0.0066244500000000005,1975.9479350000001,13.2644758,100.75370025000001
3162,3571,0.024988200000000002,0.006585415,2001.052065,13.2644758,100.75370025000001
3163,3572,0.0235064,0.00653088,2026.15625,13.2644758,100.75370025000001
3164,3573,0.022047650000000002,0.006616795,2051.260435,13.2644758,100.75370025000001
3165,3574,0.020643799999999997,0.006600595,2076.364625,13.2644758,100.75370025000001
3166,3575,0.0194262,0.0065185899999999995,2101.46875,13.2644758,100.75370025000001
3167,3576,0.017420400000000003,0.00677929,2126.572875,13.2644758,100.75370025000001
3168,3577,0.0221936,0.007648145,2151.677125,13.2644758,100.75370025000001
3169,3578,0.0232249,0.00815921,2176.78125,13.2644758,100.75370025000001
3170,3579,0.021443800000000002,0.007952154999999999,2201.885375,13.2644758,100.75370025000001
3171,3580,0.0202433,0.00800728,2226.989625,13.2644758,100.75370025000001
3172,3581,0.01934065,0.00803696,2252.09375,13.2644758,100.75370025000001
3173,3582,0.018219100000000002,0.00803407,2277.197875,13.2644758,100.75370025000001
3174,3583,0.0171118,0.008039520000000001,2302.302125,13.2644758,100.75370025000001
3175,3584,0.01627855,0.008095525,2327.40625,13.2644758,100.75370025000001
3176,3585,0.015414549999999999,0.008025675,2352.510375,13.2644758,100.75370025000001
3177,3586,0.014825250000000002,0.00812993,2377.614625,13.2644758,100.75370025000001
3178,3587,0.018234399999999998,0.009166405,2402.71875,13.2644758,100.75370025000001
3179,3588,0.018455899999999997,0.009465485,2427.822875,13.2644758,100.75370025000001
3180,3589,0.01746485,0.009365445,2452.927125,13.2644758,100.75370025000001
3181,3590,0.016942600000000002,0.009405715,2478.03125,13.2644758,100.75370025000001
3182,3591,0.016614049999999998,0.009430270000000001,2503.135375,13.2644758,100.75370025000001
3183,3592,0.0163762,0.009426725,2528.239625,13.2644758,100.75370025000001
3184,3593,0.016395299999999998,0.00944921,2553.34375,13.2644758,100.75370025000001
3185,3594,0.016343250000000004,0.009349650000000001,2578.447875,13.2644758,100.75370025000001
3186,3595,0.052798250000000005,0.0016557,1398.552065,38.8894758,93.88750075
3187,3596,0.056987350000000006,0.00258268,1423.65625,38.8894758,93.88750075
3188,3597,0.0559885,0.00233244,1448.7604350000001,38.8894758,93.88750075
3189,3598,0.0535943,0.0019502550000000001,1473.864565,38.8894758,93.88750075
3190,3599,0.0523005,0.00199292,1498.96875,38.8894758,93.88750075
3191,3600,0.050935600000000004,0.001636705,1524.0729350000001,38.8894758,93.88750075
3192,3601,0.04892615,0.00140964,1549.177065,38.8894758,93.88750075
3193,3602,0.043075100000000005,0.00225673,1574.28125,38.8894758,93.88750075
3194,3603,0.04755595,0.003067015,1599.3854350000001,38.8894758,93.88750075
3195,3604,0.0510019,0.00412882,1624.489565,38.8894758,93.88750075
3196,3605,0.0497503,0.003755515,1649.59375,38.8894758,93.88750075
3197,3606,0.0469851,0.003637675,1674.6979350000001,38.8894758,93.88750075
3198,3607,0.046335749999999995,0.003588295,1699.802065,38.8894758,93.88750075
3199,3608,0.0442457,0.0034009599999999997,1724.90625,38.8894758,93.88750075
3200,3609,0.042746450000000005,0.0033069500000000003,1750.0104350000001,38.8894758,93.88750075
3201,3610,0.040415099999999995,0.0031623149999999997,1775.114565,38.8894758,93.88750075
3202,3611,0.03903115,0.0031611649999999996,1800.21875,38.8894758,93.88750075
3203,3612,0.03701645,0.002793225,1825.3229350000001,38.8894758,93.88750075
3204,3613,0.032393149999999996,0.003665755,1850.427065,38.8894758,93.88750075
3205,3614,0.03777815,0.004426515,1875.53125,38.8894758,93.88750075
3206,3615,0.040034600000000004,0.00531866,1900.6354350000001,38.8894758,93.88750075
3207,3616,0.0385548,0.00502163,1925.739565,38.8894758,93.88750075
3208,3617,0.0357506,0.00490049,1950.84375,38.8894758,93.88750075
3209,3618,0.03475725,0.004893875000000001,1975.9479350000001,38.8894758,93.88750075
3210,3619,0.032568900000000005,0.004725125,2001.052065,38.8894758,93.88750075
3211,3620,0.0308373,0.004677145,2026.15625,38.8894758,93.88750075
3212,3621,0.02860585,0.004540205,2051.260435,38.8894758,93.88750075
3213,3622,0.026832049999999996,0.00456577,2076.364625,38.8894758,93.88750075
3214,3623,0.0247742,0.004303835000000001,2101.46875,38.8894758,93.88750075
3215,3624,0.021449799999999998,0.00487829,2126.572875,38.8894758,93.88750075
3216,3625,0.0268848,0.00578122,2151.677125,38.8894758,93.88750075
3217,3626,0.02781325,0.006413735,2176.78125,38.8894758,93.88750075
3218,3627,0.0261653,0.006227669999999999,2201.885375,38.8894758,93.88750075
3219,3628,0.0235012,0.006095255,2226.989625,38.8894758,93.88750075
3220,3629,0.022215199999999997,0.006132045,2252.09375,38.8894758,93.88750075
3221,3630,0.0201002,0.00595835,2277.197875,38.8894758,93.88750075
3222,3631,0.018235750000000002,0.005965659999999999,2302.302125,38.8894758,93.88750075
3223,3632,0.0163651,0.0059034050000000005,2327.40625,38.8894758,93.88750075
3224,3633,0.01467645,0.0058595999999999995,2352.510375,38.8894758,93.88750075
3225,3634,0.0129921,0.006011795,2377.614625,38.8894758,93.88750075
3226,3635,0.0174719,0.0070754649999999995,2402.71875,38.8894758,93.88750075
3227,3636,0.017305,0.0074503650000000005,2427.822875,38.8894758,93.88750075
3228,3637,0.01584735,0.007326605,2452.927125,38.8894758,93.88750075
3229,3638,0.014167299999999999,0.0072415,2478.03125,38.8894758,93.88750075
3230,3639,0.013421949999999998,0.00724579,2503.135375,38.8894758,93.88750075
3231,3640,0.0126965,0.00724043,2528.239625,38.8894758,93.88750075
3232,3641,0.01268095,0.007299455,2553.34375,38.8894758,93.88750075
3233,3642,0.012667399999999999,0.007154895,2578.447875,38.8894758,93.88750075
3234,3643,0.06381515,0.0006079208,1398.552065,61.86422350000001,80.623024
3235,3644,0.0696093,0.0014077585,1423.65625,61.86422350000001,80.623024
3236,3645,0.06671075,0.0005281039999999999,1448.7604350000001,61.86422350000001,80.623024
3237,3646,0.06382650000000001,0.0004490535,1473.864565,61.86422350000001,80.623024
3238,3647,0.0625106,0.00018451469999999998,1498.96875,61.86422350000001,80.623024
3239,3648,0.0618624,9.8094e-05,1524.0729350000001,61.86422350000001,80.623024
3240,3649,0.061499200000000004,-0.0007656065,1549.177065,61.86422350000001,80.623024
3241,3650,0.054016449999999994,0.0001150135,1574.28125,61.86422350000001,80.623024
3242,3651,0.058608499999999994,0.00164856,1599.3854350000001,61.86422350000001,80.623024
3243,3652,0.0633645,0.00228669,1624.489565,61.86422350000001,80.623024
3244,3653,0.05990645,0.00167654,1649.59375,61.86422350000001,80.623024
3245,3654,0.05635905000000001,0.0015477099999999999,1674.6979350000001,61.86422350000001,80.623024
3246,3655,0.054861599999999996,0.00156828,1699.802065,61.86422350000001,80.623024
3247,3656,0.052779950000000006,0.0015758999999999999,1724.90625,61.86422350000001,80.623024
3248,3657,0.05111,0.001455385,1750.0104350000001,61.86422350000001,80.623024
3249,3658,0.049292699999999995,0.00157642,1775.114565,61.86422350000001,80.623024
3250,3659,0.0486325,0.0013154965,1800.21875,61.86422350000001,80.623024
3251,3660,0.0479532,0.000878062,1825.3229350000001,61.86422350000001,80.623024
3252,3661,0.0418897,0.0014416505,1850.427065,61.86422350000001,80.623024
3253,3662,0.0466203,0.00264124,1875.53125,61.86422350000001,80.623024
3254,3663,0.0498301,0.003196145,1900.6354350000001,61.86422350000001,80.623024
3255,3664,0.04631765,0.002672535,1925.739565,61.86422350000001,80.623024
3256,3665,0.04282395,0.00262025,1950.84375,61.86422350000001,80.623024
3257,3666,0.0409825,0.00261452,1975.9479350000001,61.86422350000001,80.623024
3258,3667,0.0386667,0.002652415,2001.052065,61.86422350000001,80.623024
3259,3668,0.0366264,0.002527805,2026.15625,61.86422350000001,80.623024
3260,3669,0.03461175,0.00263852,2051.260435,61.86422350000001,80.623024
3261,3670,0.03322005,0.00239972,2076.364625,61.86422350000001,80.623024
3262,3671,0.031773499999999996,0.00211066,2101.46875,61.86422350000001,80.623024
3263,3672,0.0271586,0.00251013,2126.572875,61.86422350000001,80.623024
3264,3673,0.032016050000000004,0.0036236050000000002,2151.677125,61.86422350000001,80.623024
3265,3674,0.033393099999999995,0.004043515,2176.78125,61.86422350000001,80.623024
3266,3675,0.029983,0.00363719,2201.885375,61.86422350000001,80.623024
3267,3676,0.0267055,0.00368101,2226.989625,61.86422350000001,80.623024
3268,3677,0.02464285,0.003624685,2252.09375,61.86422350000001,80.623024
3269,3678,0.022252099999999997,0.003649755,2277.197875,61.86422350000001,80.623024
3270,3679,0.0198744,0.003540755,2302.302125,61.86422350000001,80.623024
3271,3680,0.01784205,0.003500825,2327.40625,61.86422350000001,80.623024
3272,3681,0.0156681,0.003244915,2352.510375,61.86422350000001,80.623024
3273,3682,0.012749300000000002,0.003537395,2377.614625,61.86422350000001,80.623024
3274,3683,0.017283899999999998,0.0045865,2402.71875,61.86422350000001,80.623024
3275,3684,0.01675755,0.004753749999999999,2427.822875,61.86422350000001,80.623024
3276,3685,0.013879,0.00458257,2452.927125,61.86422350000001,80.623024
3277,3686,0.011478100000000001,0.004618495,2478.03125,61.86422350000001,80.623024
3278,3687,0.009909165000000001,0.0045877750000000005,2503.135375,61.86422350000001,80.623024
3279,3688,0.008409675,0.004525029999999999,2528.239625,61.86422350000001,80.623024
3280,3689,0.007843345000000002,0.004474195,2553.34375,61.86422350000001,80.623024
3281,3690,0.00830829,0.004535385,2578.447875,61.86422350000001,80.623024
3282,3691,0.07478005,-0.0024647799999999997,1398.552065,80.623024,61.8642235
3283,3692,0.07733285,-0.0018424015,1423.65625,80.623024,61.8642235
3284,3693,0.0739606,-0.0016913850000000001,1448.7604350000001,80.623024,61.8642235
3285,3694,0.0699057,-0.001791485,1473.864565,80.623024,61.8642235
3286,3695,0.06864265,-0.0007775134999999999,1498.96875,80.623024,61.8642235
3287,3696,0.06926755000000001,-0.000895467,1524.0729350000001,80.623024,61.8642235
3288,3697,0.06981495,-0.000819595,1549.177065,80.623024,61.8642235
3289,3698,0.06516,-0.00020423499999999999,1574.28125,80.623024,61.8642235
3290,3699,0.0693232,-0.0020498865,1599.3854350000001,80.623024,61.8642235
3291,3700,0.07126165,-0.0012364305,1624.489565,80.623024,61.8642235
3292,3701,0.06733304999999999,-0.001395225,1649.59375,80.623024,61.8642235
3293,3702,0.06238325,-0.0011744395,1674.6979350000001,80.623024,61.8642235
3294,3703,0.06123405,-0.0006640229999999999,1699.802065,80.623024,61.8642235
3295,3704,0.058640250000000005,-0.0004946989999999999,1724.90625,80.623024,61.8642235
3296,3705,0.057237,-0.00012192,1750.0104350000001,80.623024,61.8642235
3297,3706,0.05515094999999999,0.00020021349999999998,1775.114565,80.623024,61.8642235
3298,3707,0.055510649999999995,0.000547961,1800.21875,80.623024,61.8642235
3299,3708,0.055998099999999995,0.00019912800000000008,1825.3229350000001,80.623024,61.8642235
3300,3709,0.051646449999999997,0.0009419905,1850.427065,80.623024,61.8642235
3301,3710,0.055369049999999996,-0.0010936964999999999,1875.53125,80.623024,61.8642235
3302,3711,0.056157849999999995,-0.00040200649999999995,1900.6354350000001,80.623024,61.8642235
3303,3712,0.05242245,-0.000485926,1925.739565,80.623024,61.8642235
3304,3713,0.047624299999999994,-0.00035914400000000004,1950.84375,80.623024,61.8642235
3305,3714,0.0459832,7.993e-05,1975.9479350000001,80.623024,61.8642235
3306,3715,0.0430708,0.000151381,2001.052065,80.623024,61.8642235
3307,3716,0.0410599,0.0004944904999999999,2026.15625,80.623024,61.8642235
3308,3717,0.03875215,0.000692186,2051.260435,80.623024,61.8642235
3309,3718,0.0379513,0.000997892,2076.364625,80.623024,61.8642235
3310,3719,0.0375692,0.0006908083999999999,2101.46875,80.623024,61.8642235
3311,3720,0.03383825,0.0011886124999999999,2126.572875,80.623024,61.8642235
3312,3721,0.03760095,-2.203299999999997e-05,2151.677125,80.623024,61.8642235
3313,3722,0.03705335,0.00047781494999999996,2176.78125,80.623024,61.8642235
3314,3723,0.033705650000000004,0.000508892,2201.885375,80.623024,61.8642235
3315,3724,0.0292305,0.0005021985,2226.989625,80.623024,61.8642235
3316,3725,0.027076450000000002,0.000887648,2252.09375,80.623024,61.8642235
3317,3726,0.0241094,0.0008095639999999999,2277.197875,80.623024,61.8642235
3318,3727,0.021277400000000002,0.0011346,2302.302125,80.623024,61.8642235
3319,3728,0.0194674,0.00120981,2327.40625,80.623024,61.8642235
3320,3729,0.017858150000000003,0.001069554,2352.510375,80.623024,61.8642235
3321,3730,0.0148189,0.001217559,2377.614625,80.623024,61.8642235
3322,3731,0.01833195,0.000997693,2402.71875,80.623024,61.8642235
3323,3732,0.01647975,0.0013441,2427.822875,80.623024,61.8642235
3324,3733,0.01346265,0.001416275,2452.927125,80.623024,61.8642235
3325,3734,0.009567575,0.0014164199999999998,2478.03125,80.623024,61.8642235
3326,3735,0.0071608850000000005,0.0015420149999999999,2503.135375,80.623024,61.8642235
3327,3736,0.00416511,0.00152264,2528.239625,80.623024,61.8642235
3328,3737,0.00289647,0.0014676,2553.34375,80.623024,61.8642235
3329,3738,0.00334744,0.0012895049999999998,2578.447875,80.623024,61.8642235
3330,3739,0.080766,-0.008645185,1398.552065,93.88750075,38.8894758
3331,3740,0.08438085000000001,-0.0065092,1423.65625,93.88750075,38.8894758
3332,3741,0.07738020000000001,-0.005112185,1448.7604350000001,93.88750075,38.8894758
3333,3742,0.0743831,-0.0029089299999999997,1473.864565,93.88750075,38.8894758
3334,3743,0.07322405000000001,-0.0027276749999999997,1498.96875,93.88750075,38.8894758
3335,3744,0.0724245,-0.0005971475000000001,1524.0729350000001,93.88750075,38.8894758
3336,3745,0.0761569,0.0008083890000000001,1549.177065,93.88750075,38.8894758
3337,3746,0.0708433,0.00286183,1574.28125,93.88750075,38.8894758
3338,3747,0.0749613,-0.008155285,1599.3854350000001,93.88750075,38.8894758
3339,3748,0.07797265,-0.006347715,1624.489565,93.88750075,38.8894758
3340,3749,0.07116815,-0.005047215,1649.59375,93.88750075,38.8894758
3341,3750,0.06699615,-0.003565255,1674.6979350000001,93.88750075,38.8894758
3342,3751,0.06606065,-0.003289955,1699.802065,93.88750075,38.8894758
3343,3752,0.06294425000000001,-0.0024117649999999997,1724.90625,93.88750075,38.8894758
3344,3753,0.061970899999999995,-0.001744265,1750.0104350000001,93.88750075,38.8894758
3345,3754,0.05942215000000001,-0.001273375,1775.114565,93.88750075,38.8894758
3346,3755,0.05892485,-9.78186e-05,1800.21875,93.88750075,38.8894758
3347,3756,0.060994450000000006,0.0013001835,1825.3229350000001,93.88750075,38.8894758
3348,3757,0.05661545,0.0028219100000000004,1850.427065,93.88750075,38.8894758
3349,3758,0.06030895,-0.006686145,1875.53125,93.88750075,38.8894758
3350,3759,0.06228175,-0.00522026,1900.6354350000001,93.88750075,38.8894758
3351,3760,0.05600605,-0.0043246050000000005,1925.739565,93.88750075,38.8894758
3352,3761,0.05167835,-0.00314533,1950.84375,93.88750075,38.8894758
3353,3762,0.05005,-0.0029880749999999998,1975.9479350000001,93.88750075,38.8894758
3354,3763,0.0466289,-0.0022768800000000002,2001.052065,93.88750075,38.8894758
3355,3764,0.04482785,-0.0018104850000000001,2026.15625,93.88750075,38.8894758
3356,3765,0.0419916,-0.00138337,2051.260435,93.88750075,38.8894758
3357,3766,0.040423150000000005,-0.0005448095,2076.364625,93.88750075,38.8894758
3358,3767,0.040770749999999994,0.000597564,2101.46875,93.88750075,38.8894758
3359,3768,0.0374172,0.0016744899999999998,2126.572875,93.88750075,38.8894758
3360,3769,0.04129685000000001,-0.00482247,2151.677125,93.88750075,38.8894758
3361,3770,0.042006550000000004,-0.003820935,2176.78125,93.88750075,38.8894758
3362,3771,0.03658685,-0.003433025,2201.885375,93.88750075,38.8894758
3363,3772,0.0321966,-0.00262901,2226.989625,93.88750075,38.8894758
3364,3773,0.0297872,-0.00262381,2252.09375,93.88750075,38.8894758
3365,3774,0.0262164,-0.00203245,2277.197875,93.88750075,38.8894758
3366,3775,0.0233559,-0.0017839499999999999,2302.302125,93.88750075,38.8894758
3367,3776,0.02048525,-0.00126932,2327.40625,93.88750075,38.8894758
3368,3777,0.01889975,-0.0004455735,2352.510375,93.88750075,38.8894758
3369,3778,0.016509199999999998,0.00011249705,2377.614625,93.88750075,38.8894758
3370,3779,0.0204323,-0.00290627,2402.71875,93.88750075,38.8894758
3371,3780,0.01970285,-0.002437865,2427.822875,93.88750075,38.8894758
3372,3781,0.01535545,-0.00256388,2452.927125,93.88750075,38.8894758
3373,3782,0.01090215,-0.002248315,2478.03125,93.88750075,38.8894758
3374,3783,0.008094734999999999,-0.0022158250000000003,2503.135375,93.88750075,38.8894758
3375,3784,0.004550790000000001,-0.00199359,2528.239625,93.88750075,38.8894758
3376,3785,0.002898765,-0.001513885,2553.34375,93.88750075,38.8894758
3377,3786,0.003565375,-0.0014493050000000001,2578.447875,93.88750075,38.8894758
3378,3787,0.08603585,-0.0161214,1398.552065,100.75370025000001,13.2644758
3379,3788,0.0825304,-0.01278485,1423.65625,100.75370025000001,13.2644758
3380,3789,0.07807030000000001,-0.006512075,1448.7604350000001,100.75370025000001,13.2644758
3381,3790,0.07584830000000001,-0.005221155,1473.864565,100.75370025000001,13.2644758
3382,3791,0.07428915,-0.0033133950000000002,1498.96875,100.75370025000001,13.2644758
3383,3792,0.07355155,-0.001939545,1524.0729350000001,100.75370025000001,13.2644758
3384,3793,0.07313045000000001,0.00361618,1549.177065,100.75370025000001,13.2644758
3385,3794,0.07305055,0.007427400000000001,1574.28125,100.75370025000001,13.2644758
3386,3795,0.08043410000000001,-0.015605500000000001,1599.3854350000001,100.75370025000001,13.2644758
3387,3796,0.07668040000000001,-0.01281875,1624.489565,100.75370025000001,13.2644758
3388,3797,0.07167525,-0.007169145,1649.59375,100.75370025000001,13.2644758
3389,3798,0.0689043,-0.00635583,1674.6979350000001,100.75370025000001,13.2644758
3390,3799,0.06732055,-0.005218485,1699.802065,100.75370025000001,13.2644758
3391,3800,0.0653354,-0.00436619,1724.90625,100.75370025000001,13.2644758
3392,3801,0.06353154999999999,-0.00361167,1750.0104350000001,100.75370025000001,13.2644758
3393,3802,0.0612866,-0.0026585899999999997,1775.114565,100.75370025000001,13.2644758
3394,3803,0.05984325,-0.001829175,1800.21875,100.75370025000001,13.2644758
3395,3804,0.058482150000000004,0.002556555,1825.3229350000001,100.75370025000001,13.2644758
3396,3805,0.057274099999999994,0.0057656,1850.427065,100.75370025000001,13.2644758
3397,3806,0.06638949999999999,-0.01351165,1875.53125,100.75370025000001,13.2644758
3398,3807,0.062382650000000005,-0.0115204,1900.6354350000001,100.75370025000001,13.2644758
3399,3808,0.0570344,-0.007006170000000001,1925.739565,100.75370025000001,13.2644758
3400,3809,0.05381025,-0.00640899,1950.84375,100.75370025000001,13.2644758
3401,3810,0.0515501,-0.005514685,1975.9479350000001,100.75370025000001,13.2644758
3402,3811,0.048994399999999994,-0.004834345,2001.052065,100.75370025000001,13.2644758
3403,3812,0.046586749999999996,-0.004282305,2026.15625,100.75370025000001,13.2644758
3404,3813,0.0438575,-0.00357531,2051.260435,100.75370025000001,13.2644758
3405,3814,0.04156435,-0.00291285,2076.364625,100.75370025000001,13.2644758
3406,3815,0.0389042,0.00010987550000000006,2101.46875,100.75370025000001,13.2644758
3407,3816,0.036484100000000005,0.00263336,2126.572875,100.75370025000001,13.2644758
3408,3817,0.047843750000000004,-0.01069548,2151.677125,100.75370025000001,13.2644758
3409,3818,0.0437612,-0.00972185,2176.78125,100.75370025000001,13.2644758
3410,3819,0.03823375,-0.00668145,2201.885375,100.75370025000001,13.2644758
3411,3820,0.03466175,-0.006353305,2226.989625,100.75370025000001,13.2644758
3412,3821,0.03170824999999999,-0.00578055,2252.09375,100.75370025000001,13.2644758
3413,3822,0.02861385,-0.00524036,2277.197875,100.75370025000001,13.2644758
3414,3823,0.025380100000000003,-0.0048464,2302.302125,100.75370025000001,13.2644758
3415,3824,0.022341800000000002,-0.00435044,2327.40625,100.75370025000001,13.2644758
3416,3825,0.01834595,-0.002847535,2352.510375,100.75370025000001,13.2644758
3417,3826,0.01429285,-0.001105616,2377.614625,100.75370025000001,13.2644758
3418,3827,0.027549700000000003,-0.00775873,2402.71875,100.75370025000001,13.2644758
3419,3828,0.0238843,-0.00790938,2427.822875,100.75370025000001,13.2644758
3420,3829,0.01867575,-0.0064969,2452.927125,100.75370025000001,13.2644758
3421,3830,0.01558135,-0.006501745,2478.03125,100.75370025000001,13.2644758
3422,3831,0.012921499999999999,-0.006259835,2503.135375,100.75370025000001,13.2644758
3423,3832,0.01072025,-0.005913355,2528.239625,100.75370025000001,13.2644758
3424,3833,0.0103565,-0.005881674999999999,2553.34375,100.75370025000001,13.2644758
3425,3834,0.01024551,-0.00484376,2578.447875,100.75370025000001,13.2644758
3426,3947,0.032295700000000004,-0.008876905000000001,1373.5,-95.0419769,-36.5625
3427,3948,0.05968,-0.02109935,1373.5,-100.01399229999998,-12.1875
3428,3949,0.03962805,-0.0094084,1348.5,-95.0419769,-36.5625
3429,3950,0.043013499999999996,-0.02264435,1348.5,-100.01399229999998,-12.1875
3430,3951,0.03267635,-0.01585585,1323.5,-95.0419769,-36.5625
3431,3952,0.06625980000000001,-0.02485205,1323.5,-100.01399229999998,-12.1875
3432,3953,0.03008385,-0.014492000000000001,1298.5,-95.0419769,-36.5625
3433,3954,0.06247365,-0.0323538,1298.5,-100.01399229999998,-12.1875
3434,3955,0.03329505,-0.018858100000000003,1273.5,-95.0419769,-36.5625
3435,3956,0.05868975,-0.03369985,1273.5,-100.01399229999998,-12.1875
3436,3957,0.026973900000000002,-0.01536395,1248.5,-95.0419769,-36.5625
3437,3958,0.06034315,-0.0335679,1248.5,-100.01399229999998,-12.1875
3438,3959,0.031484849999999995,-0.0174717,1223.5,-95.0419769,-36.5625
3439,3960,0.06115835,-0.02692185,1223.5,-100.01399229999998,-12.1875
3440,3961,0.012513400000000001,0.007142825,184.34285749999998,13.2644758,100.75370025000001
3441,3962,0.012628149999999998,0.00714898,209.028572,13.2644758,100.75370025000001
3442,3963,0.01339155,0.007209119999999999,233.71428650000001,13.2644758,100.75370025000001
3443,3964,0.013896549999999999,0.00705514,258.40000150000003,13.2644758,100.75370025000001
3444,3965,0.0158224,0.00906735,283.0857085,13.2644758,100.75370025000001
3445,3966,0.01630425,0.009168860000000001,307.771423,13.2644758,100.75370025000001
3446,3967,0.016975900000000002,0.00910562,332.457138,13.2644758,100.75370025000001
3447,3968,0.018245400000000002,0.009150245000000001,357.142853,13.2644758,100.75370025000001
3448,3969,0.01959315,0.009080584999999999,381.82856749999996,13.2644758,100.75370025000001
3449,3970,0.021371300000000003,0.009120325,406.514282,13.2644758,100.75370025000001
3450,3971,0.0232544,0.00912612,431.199997,13.2644758,100.75370025000001
3451,3972,0.02490615,0.00911549,455.88571199999996,13.2644758,100.75370025000001
3452,3973,0.02714845,0.009072945,480.5714264999999,13.2644758,100.75370025000001
3453,3974,0.029930199999999997,0.009278265,505.25712599999997,13.2644758,100.75370025000001
3454,3975,0.029086050000000002,0.008746455,529.942841,13.2644758,100.75370025000001
3455,3976,0.024828450000000002,0.010779900000000002,554.628571,13.2644758,100.75370025000001
3456,3977,0.0276377,0.010527100000000001,579.314301,13.2644758,100.75370025000001
3457,3978,0.02977525,0.0106768,604.0,13.2644758,100.75370025000001
3458,3979,0.0318057,0.010563200000000002,628.685699,13.2644758,100.75370025000001
3459,3980,0.03446815,0.010563550000000001,653.371429,13.2644758,100.75370025000001
3460,3981,0.0368433,0.01054635,678.057159,13.2644758,100.75370025000001
3461,3982,0.0386069,0.01050545,702.7428585,13.2644758,100.75370025000001
3462,3983,0.041195249999999996,0.010393349999999999,727.4285580000001,13.2644758,100.75370025000001
3463,3984,0.04448905,0.010742849999999998,752.114288,13.2644758,100.75370025000001
3464,3985,0.042084250000000004,0.009880465,776.8000180000001,13.2644758,100.75370025000001
3465,3986,0.0371944,0.0124849,801.4857175,13.2644758,100.75370025000001
3466,3987,0.041838299999999995,0.01194145,826.171417,13.2644758,100.75370025000001
3467,3988,0.044239799999999996,0.01222575,850.8571469999999,13.2644758,100.75370025000001
3468,3989,0.04645225,0.012046600000000001,875.5428769999999,13.2644758,100.75370025000001
3469,3990,0.04966595,0.012032850000000001,900.2285764999999,13.2644758,100.75370025000001
3470,3991,0.05224575,0.012009549999999999,924.914276,13.2644758,100.75370025000001
3471,3992,0.0538887,0.01194805,949.6000060000001,13.2644758,100.75370025000001
3472,3993,0.05663585,0.011774,974.285736,13.2644758,100.75370025000001
3473,3994,0.0603553,0.01229065,998.9714355,13.2644758,100.75370025000001
3474,3995,0.0561966,0.011039199999999999,1023.6571349999999,13.2644758,100.75370025000001
3475,3996,0.0071170899999999995,0.003951635,184.34285749999998,38.8894758,93.88750075
3476,3997,0.007862379999999999,0.004046485,209.028572,38.8894758,93.88750075
3477,3998,0.00914738,0.004080605,233.71428650000001,38.8894758,93.88750075
3478,3999,0.010502069999999999,0.00384799,258.40000150000003,38.8894758,93.88750075
3479,4000,0.010695099999999999,0.005907265,283.0857085,38.8894758,93.88750075
3480,4001,0.0117064,0.0057799900000000005,307.771423,38.8894758,93.88750075
3481,4002,0.01365125,0.0059041300000000005,332.457138,38.8894758,93.88750075
3482,4003,0.0162073,0.005798424999999999,357.142853,38.8894758,93.88750075
3483,4004,0.018899600000000003,0.005947285,381.82856749999996,38.8894758,93.88750075
3484,4005,0.021649300000000003,0.005900925,406.514282,38.8894758,93.88750075
3485,4006,0.024864950000000004,0.0060595549999999995,431.199997,38.8894758,93.88750075
3486,4007,0.027041549999999998,0.005988505,455.88571199999996,38.8894758,93.88750075
3487,4008,0.031155,0.006141125,480.5714264999999,38.8894758,93.88750075
3488,4009,0.033807000000000004,0.0063063,505.25712599999997,38.8894758,93.88750075
3489,4010,0.03334395,0.00566154,529.942841,38.8894758,93.88750075
3490,4011,0.026067800000000002,0.007217385,554.628571,38.8894758,93.88750075
3491,4012,0.030911099999999997,0.006834605,579.314301,38.8894758,93.88750075
3492,4013,0.03432425,0.006934395,604.0,38.8894758,93.88750075
3493,4014,0.0376215,0.00707482,628.685699,38.8894758,93.88750075
3494,4015,0.041252750000000005,0.007040869999999999,653.371429,38.8894758,93.88750075
3495,4016,0.04493195,0.0073829099999999995,678.057159,38.8894758,93.88750075
3496,4017,0.04706075,0.0073066,702.7428585,38.8894758,93.88750075
3497,4018,0.051872549999999996,0.007568985,727.4285580000001,38.8894758,93.88750075
3498,4019,0.054493400000000004,0.00786267,752.114288,38.8894758,93.88750075
3499,4020,0.052177100000000004,0.006775705,776.8000180000001,38.8894758,93.88750075
3500,4021,0.0445461,0.008637985,801.4857175,38.8894758,93.88750075
3501,4022,0.05166975,0.007879569999999999,826.171417,38.8894758,93.88750075
3502,4023,0.05569389999999999,0.008080710000000001,850.8571469999999,38.8894758,93.88750075
3503,4024,0.058985749999999997,0.008328765,875.5428769999999,38.8894758,93.88750075
3504,4025,0.06327169999999999,0.00827077,900.2285764999999,38.8894758,93.88750075
3505,4026,0.0672523,0.008812105,924.914276,38.8894758,93.88750075
3506,4027,0.06912805,0.00870245,949.6000060000001,38.8894758,93.88750075
3507,4028,0.07462750000000001,0.00908777,974.285736,38.8894758,93.88750075
3508,4029,0.07712085,0.009521305,998.9714355,38.8894758,93.88750075
3509,4030,0.07277805000000001,0.007930949999999999,1023.6571349999999,38.8894758,93.88750075
3510,4031,0.00225969,0.000654434,184.34285749999998,61.86422350000001,80.623024
3511,4032,0.00392967,0.000518304,209.028572,61.86422350000001,80.623024
3512,4033,0.007014940000000001,0.00060382,233.71428650000001,61.86422350000001,80.623024
3513,4034,0.008913250000000001,0.0006590624999999999,258.40000150000003,61.86422350000001,80.623024
3514,4035,0.00627199,0.002154605,283.0857085,61.86422350000001,80.623024
3515,4036,0.009196645,0.00206166,307.771423,61.86422350000001,80.623024
3516,4037,0.0125123,0.00205828,332.457138,61.86422350000001,80.623024
3517,4038,0.0159843,0.0023002400000000003,357.142853,61.86422350000001,80.623024
3518,4039,0.0192376,0.00217355,381.82856749999996,61.86422350000001,80.623024
3519,4040,0.022825500000000002,0.00233978,406.514282,61.86422350000001,80.623024
3520,4041,0.026490649999999998,0.00222272,431.199997,61.86422350000001,80.623024
3521,4042,0.0297011,0.00229768,455.88571199999996,61.86422350000001,80.623024
3522,4043,0.03435515,0.0022221899999999998,480.5714264999999,61.86422350000001,80.623024
3523,4044,0.03899614999999999,0.0026203850000000002,505.25712599999997,61.86422350000001,80.623024
3524,4045,0.0379935,0.0022677599999999997,529.942841,61.86422350000001,80.623024
3525,4046,0.03006095,0.0030675,554.628571,61.86422350000001,80.623024
3526,4047,0.0366803,0.002524175,579.314301,61.86422350000001,80.623024
3527,4048,0.03995185,0.00301746,604.0,61.86422350000001,80.623024
3528,4049,0.0430547,0.00307461,628.685699,61.86422350000001,80.623024
3529,4050,0.047104599999999996,0.003298335,653.371429,61.86422350000001,80.623024
3530,4051,0.05102775,0.00322316,678.057159,61.86422350000001,80.623024
3531,4052,0.0542748,0.00337099,702.7428585,61.86422350000001,80.623024
3532,4053,0.0599488,0.0033020899999999997,727.4285580000001,61.86422350000001,80.623024
3533,4054,0.06552825,0.004032525,752.114288,61.86422350000001,80.623024
3534,4055,0.0620806,0.00331828,776.8000180000001,61.86422350000001,80.623024
3535,4056,0.0540616,0.00404365,801.4857175,61.86422350000001,80.623024
3536,4057,0.063629,0.00314236,826.171417,61.86422350000001,80.623024
3537,4058,0.06666274999999999,0.00398215,850.8571469999999,61.86422350000001,80.623024
3538,4059,0.06937304999999999,0.00405249,875.5428769999999,61.86422350000001,80.623024
3539,4060,0.07393025,0.00438831,900.2285764999999,61.86422350000001,80.623024
3540,4061,0.07814815,0.004277505,924.914276,61.86422350000001,80.623024
3541,4062,0.08148364999999999,0.004520925,949.6000060000001,61.86422350000001,80.623024
3542,4063,0.08822284999999999,0.0044404100000000005,974.285736,61.86422350000001,80.623024
3543,4064,0.09486125,0.0055543599999999995,998.9714355,61.86422350000001,80.623024
3544,4065,0.0886712,0.004418465,1023.6571349999999,61.86422350000001,80.623024
3545,4066,0.0055891050000000005,-0.0029883749999999997,184.34285749999998,80.623024,61.8642235
3546,4067,0.007144080000000001,-0.002878375,209.028572,80.623024,61.8642235
3547,4068,0.0086992,-0.00282685,233.71428650000001,80.623024,61.8642235
3548,4069,0.011037004999999999,-0.00301692,258.40000150000003,80.623024,61.8642235
3549,4070,0.007595274999999999,-0.00152396,283.0857085,80.623024,61.8642235
3550,4071,0.011393,-0.001685425,307.771423,80.623024,61.8642235
3551,4072,0.0137771,-0.0013867749999999998,332.457138,80.623024,61.8642235
3552,4073,0.01743365,-0.0016451249999999999,357.142853,80.623024,61.8642235
3553,4074,0.020902650000000002,-0.00160398,381.82856749999996,80.623024,61.8642235
3554,4075,0.02486555,-0.001937555,406.514282,80.623024,61.8642235
3555,4076,0.029152449999999996,-0.00180964,431.199997,80.623024,61.8642235
3556,4077,0.03233595,-0.0021846950000000004,455.88571199999996,80.623024,61.8642235
3557,4078,0.038120600000000004,-0.00213132,480.5714264999999,80.623024,61.8642235
3558,4079,0.042364200000000005,-0.00223794,505.25712599999997,80.623024,61.8642235
3559,4080,0.0435291,-0.002687975,529.942841,80.623024,61.8642235
3560,4081,0.036357749999999994,-0.0004452125,554.628571,80.623024,61.8642235
3561,4082,0.042093000000000005,-0.0008074533000000001,579.314301,80.623024,61.8642235
3562,4083,0.0444136,-0.000572763,604.0,80.623024,61.8642235
3563,4084,0.046709299999999995,-0.0006723405,628.685699,80.623024,61.8642235
3564,4085,0.0515037,-0.00131047,653.371429,80.623024,61.8642235
3565,4086,0.05609195,-0.001129025,678.057159,80.623024,61.8642235
3566,4087,0.0593722,-0.0018717649999999998,702.7428585,80.623024,61.8642235
3567,4088,0.0670052,-0.00183961,727.4285580000001,80.623024,61.8642235
3568,4089,0.0724218,-0.00191134,752.114288,80.623024,61.8642235
3569,4090,0.07250395,-0.0027432050000000003,776.8000180000001,80.623024,61.8642235
3570,4091,0.06521305,0.0008480195000000002,801.4857175,80.623024,61.8642235
3571,4092,0.0727627,0.00018408999999999993,826.171417,80.623024,61.8642235
3572,4093,0.07452355,0.000489071,850.8571469999999,80.623024,61.8642235
3573,4094,0.07575005,0.00034897350000000004,875.5428769999999,80.623024,61.8642235
3574,4095,0.08133375000000001,-0.000684711,900.2285764999999,80.623024,61.8642235
3575,4096,0.08639215,-0.00040516200000000004,924.914276,80.623024,61.8642235
3576,4097,0.08963225,-0.0015588949999999998,949.6000060000001,80.623024,61.8642235
3577,4098,0.09929645,-0.001539005,974.285736,80.623024,61.8642235
3578,4099,0.1059642,-0.0015672745,998.9714355,80.623024,61.8642235
3579,4100,0.10479444999999998,-0.0028220199999999997,1023.6571349999999,80.623024,61.8642235
3580,4101,0.01076685,-0.006088795,184.34285749999998,93.88750075,38.8894758
3581,4102,0.012089100000000002,-0.006375195,209.028572,93.88750075,38.8894758
3582,4103,0.014105600000000001,-0.00649565,233.71428650000001,93.88750075,38.8894758
3583,4104,0.01553815,-0.006748755,258.40000150000003,93.88750075,38.8894758
3584,4105,0.0114018,-0.004313455000000001,283.0857085,93.88750075,38.8894758
3585,4106,0.013691249999999999,-0.00461479,307.771423,93.88750075,38.8894758
3586,4107,0.017012,-0.00537069,332.457138,93.88750075,38.8894758
3587,4108,0.020636099999999998,-0.0056053200000000004,357.142853,93.88750075,38.8894758
3588,4109,0.024524749999999998,-0.00598104,381.82856749999996,93.88750075,38.8894758
3589,4110,0.028111999999999998,-0.00608448,406.514282,93.88750075,38.8894758
3590,4111,0.0327748,-0.006599615,431.199997,93.88750075,38.8894758
3591,4112,0.0358971,-0.006503495,455.88571199999996,93.88750075,38.8894758
3592,4113,0.041565000000000005,-0.007338839999999999,480.5714264999999,93.88750075,38.8894758
3593,4114,0.04791195,-0.0076489850000000005,505.25712599999997,93.88750075,38.8894758
3594,4115,0.047575049999999994,-0.008636355,529.942841,93.88750075,38.8894758
3595,4116,0.039657,-0.0016681,554.628571,93.88750075,38.8894758
3596,4117,0.044648900000000005,-0.00276435,579.314301,93.88750075,38.8894758
3597,4118,0.04649075,-0.00424463,604.0,93.88750075,38.8894758
3598,4119,0.05067695,-0.00527313,628.685699,93.88750075,38.8894758
3599,4120,0.05526985,-0.005681605,653.371429,93.88750075,38.8894758
3600,4121,0.0608883,-0.006822765,678.057159,93.88750075,38.8894758
3601,4122,0.06446425,-0.00684272,702.7428585,93.88750075,38.8894758
3602,4123,0.07182405,-0.00836506,727.4285580000001,93.88750075,38.8894758
3603,4124,0.08093575,-0.009191620000000001,752.114288,93.88750075,38.8894758
3604,4125,0.07900684999999999,-0.01099685,776.8000180000001,93.88750075,38.8894758
3605,4126,0.0705389,0.0012634690000000001,801.4857175,93.88750075,38.8894758
3606,4127,0.07749255000000001,-0.00064518,826.171417,93.88750075,38.8894758
3607,4128,0.0775653,-0.00288243,850.8571469999999,93.88750075,38.8894758
3608,4129,0.08151085,-0.00464686,875.5428769999999,93.88750075,38.8894758
3609,4130,0.08685865000000001,-0.005225845,900.2285764999999,93.88750075,38.8894758
3610,4131,0.09315960000000001,-0.0070347050000000005,924.914276,93.88750075,38.8894758
3611,4132,0.09702105,-0.0071660249999999995,949.6000060000001,93.88750075,38.8894758
3612,4133,0.10597960000000001,-0.00945328,974.285736,93.88750075,38.8894758
3613,4134,0.118013,-0.010879350000000001,998.9714355,93.88750075,38.8894758
3614,4135,0.1142403,-0.0135985,1023.6571349999999,93.88750075,38.8894758
3615,4136,0.017225900000000002,-0.009874155,184.34285749999998,100.75370025000001,13.2644758
3616,4137,0.019162850000000002,-0.0108604,209.028572,100.75370025000001,13.2644758
3617,4138,0.02221415,-0.01177395,233.71428650000001,100.75370025000001,13.2644758
3618,4139,0.0237483,-0.011272649999999999,258.40000150000003,100.75370025000001,13.2644758
3619,4140,0.0134885,-0.007094619999999999,283.0857085,100.75370025000001,13.2644758
3620,4141,0.0183561,-0.008826155,307.771423,100.75370025000001,13.2644758
3621,4142,0.0221393,-0.009569075,332.457138,100.75370025000001,13.2644758
3622,4143,0.025521049999999997,-0.009975254999999999,357.142853,100.75370025000001,13.2644758
3623,4144,0.02885885,-0.010218600000000001,381.82856749999996,100.75370025000001,13.2644758
3624,4145,0.032222,-0.0104419,406.514282,100.75370025000001,13.2644758
3625,4146,0.03591185,-0.010867850000000002,431.199997,100.75370025000001,13.2644758
3626,4147,0.039571699999999994,-0.01143415,455.88571199999996,100.75370025000001,13.2644758
3627,4148,0.0438758,-0.0117174,480.5714264999999,100.75370025000001,13.2644758
3628,4149,0.05113495,-0.015037199999999999,505.25712599999997,100.75370025000001,13.2644758
3629,4150,0.05588390000000001,-0.01565405,529.942841,100.75370025000001,13.2644758
3630,4151,0.036311949999999996,-0.00250737,554.628571,100.75370025000001,13.2644758
3631,4152,0.0425591,-0.0057906599999999996,579.314301,100.75370025000001,13.2644758
3632,4153,0.0489429,-0.00902462,604.0,100.75370025000001,13.2644758
3633,4154,0.053522,-0.0099594,628.685699,100.75370025000001,13.2644758
3634,4155,0.05871559999999999,-0.01071335,653.371429,100.75370025000001,13.2644758
3635,4156,0.06353965,-0.0117686,678.057159,100.75370025000001,13.2644758
3636,4157,0.06810920000000001,-0.0128107,702.7428585,100.75370025000001,13.2644758
3637,4158,0.0738276,-0.013492500000000001,727.4285580000001,100.75370025000001,13.2644758
3638,4159,0.08318904999999999,-0.01923965,752.114288,100.75370025000001,13.2644758
3639,4160,0.08978140000000001,-0.02109865,776.8000180000001,100.75370025000001,13.2644758
3640,4161,0.06688255000000001,0.0024313190000000004,801.4857175,100.75370025000001,13.2644758
3641,4162,0.0727695,-0.0024264350000000002,826.171417,100.75370025000001,13.2644758
3642,4163,0.07937179999999999,-0.008162445,850.8571469999999,100.75370025000001,13.2644758
3643,4164,0.08431705,-0.009610464999999999,875.5428769999999,100.75370025000001,13.2644758
3644,4165,0.09050454999999999,-0.010897299999999999,900.2285764999999,100.75370025000001,13.2644758
3645,4166,0.0960938,-0.012577399999999999,924.914276,100.75370025000001,13.2644758
3646,4167,0.1011786,-0.0141641,949.6000060000001,100.75370025000001,13.2644758
3647,4168,0.1081385,-0.01530445,974.285736,100.75370025000001,13.2644758
3648,4169,0.119389,-0.0237559,998.9714355,100.75370025000001,13.2644758
3649,4170,0.1276445,-0.02704695,1023.6571349999999,100.75370025000001,13.2644758
3650,4171,0.11045050000000001,-0.0179755,1023.6571349999999,100.0139923,-12.1875
3651,4172,0.08849209999999999,-0.01923975,1023.6571349999999,95.04197690000001,-36.5625
3652,4173,0.10469450000000001,-0.01448715,998.9714355,100.0139923,-12.1875
3653,4174,0.0952067,-0.01867945,998.9714355,95.04197690000001,-36.5625
3654,4175,0.1006454,-0.010401500000000001,974.285736,100.0139923,-12.1875
3655,4176,0.0927548,-0.01446265,974.285736,95.04197690000001,-36.5625
3656,4177,0.0956833,-0.007868055,949.6000060000001,100.0139923,-12.1875
3657,4178,0.0898108,-0.0121683,949.6000060000001,95.04197690000001,-36.5625
3658,4179,0.09122145000000001,-0.006502404999999999,924.914276,100.0139923,-12.1875
3659,4180,0.0864363,-0.010274725,924.914276,95.04197690000001,-36.5625
3660,4181,0.0868588,-0.00530154,900.2285764999999,100.0139923,-12.1875
3661,4182,0.08286915,-0.0092933,900.2285764999999,95.04197690000001,-36.5625
3662,4183,0.08197254999999999,-0.004375354999999999,875.5428769999999,100.0139923,-12.1875
3663,4184,0.07941985000000001,-0.00804866,875.5428769999999,95.04197690000001,-36.5625
3664,4185,0.07694645,-0.002876455,850.8571469999999,100.0139923,-12.1875
3665,4186,0.0747766,-0.007020035,850.8571469999999,95.04197690000001,-36.5625
3666,4187,0.069648,-0.00137213,826.171417,100.0139923,-12.1875
3667,4188,0.07010865,-0.00564213,826.171417,95.04197690000001,-36.5625
3668,4189,0.06303125000000001,-0.0002740809999999999,801.4857175,100.0139923,-12.1875
3669,4190,0.0630603,-0.00444313,801.4857175,95.04197690000001,-36.5625
3670,4191,0.0768266,-0.014586849999999998,776.8000180000001,100.0139923,-12.1875
3671,4192,0.0610762,-0.0160883,776.8000180000001,95.04197690000001,-36.5625
3672,4193,0.0716252,-0.0121611,752.1142880000001,100.0139923,-12.1875
3673,4194,0.06528034999999999,-0.015845249999999998,752.1142880000001,95.04197690000001,-36.5625
3674,4195,0.06753545000000001,-0.009263065000000001,727.4285580000001,100.0139923,-12.1875
3675,4196,0.06261695,-0.01286115,727.4285580000001,95.04197690000001,-36.5625
3676,4197,0.063108,-0.007564715,702.7428585,100.0139923,-12.1875
3677,4198,0.05974905,-0.011270299999999999,702.7428585,95.04197690000001,-36.5625
3678,4199,0.05913335,-0.00666327,678.057159,100.0139923,-12.1875
3679,4200,0.056748,-0.01001546,678.057159,95.04197690000001,-36.5625
3680,4201,0.0552906,-0.00592332,653.371429,100.0139923,-12.1875
3681,4202,0.0536836,-0.009416165,653.371429,95.04197690000001,-36.5625
3682,4203,0.05110545,-0.0054183600000000005,628.685699,100.0139923,-12.1875
3683,4204,0.0507686,-0.008719695,628.685699,95.04197690000001,-36.5625
3684,4205,0.0467259,-0.00460322,604.0,100.0139923,-12.1875
3685,4206,0.04712215,-0.00824308,604.0,95.04197690000001,-36.5625
3686,4207,0.040916049999999995,-0.0039987799999999995,579.314301,100.0139923,-12.1875
3687,4208,0.04368330000000001,-0.00769806,579.314301,95.04197690000001,-36.5625
3688,4209,0.035377650000000004,-0.00353587,554.6285710000001,100.0139923,-12.1875
3689,4210,0.039156500000000004,-0.006866105,554.6285710000001,95.04197690000001,-36.5625
3690,4211,0.046785,-0.0114808,529.942841,100.0139923,-12.1875
3691,4212,0.03725375,-0.01316945,529.942841,95.04197690000001,-36.5625
3692,4213,0.042323849999999996,-0.010041275,505.25712599999997,100.0139923,-12.1875
3693,4214,0.03920345,-0.01317855,505.25712599999997,95.04197690000001,-36.5625
3694,4215,0.0383065,-0.00817567,480.5714264999999,100.0139923,-12.1875
3695,4216,0.03647155,-0.0113311,480.5714264999999,95.04197690000001,-36.5625
3696,4217,0.034562300000000004,-0.0072098100000000005,455.88571199999996,100.0139923,-12.1875
3697,4218,0.03377495,-0.01030015,455.88571199999996,95.04197690000001,-36.5625
3698,4219,0.03115105,-0.00664647,431.199997,100.0139923,-12.1875
3699,4220,0.03132185,-0.009640955,431.199997,95.04197690000001,-36.5625
3700,4221,0.02813125,-0.00636596,406.514282,100.0139923,-12.1875
3701,4222,0.028935649999999997,-0.00926168,406.514282,95.04197690000001,-36.5625
3702,4223,0.02488045,-0.0060801250000000005,381.82856749999996,100.0139923,-12.1875
3703,4224,0.026876100000000003,-0.009120679999999999,381.82856749999996,95.04197690000001,-36.5625
3704,4225,0.0219356,-0.006131275,357.142853,100.0139923,-12.1875
3705,4226,0.02478995,-0.009012425000000001,357.142853,95.04197690000001,-36.5625
3706,4227,0.018715250000000003,-0.0059735,332.457138,100.0139923,-12.1875
3707,4228,0.02294295,-0.00913921,332.457138,95.04197690000001,-36.5625
3708,4229,0.0157213,-0.006279295,307.771423,100.0139923,-12.1875
3709,4230,0.02164705,-0.00941152,307.771423,95.04197690000001,-36.5625
3710,4231,0.013136150000000001,-0.0064271350000000005,283.0857085,100.0139923,-12.1875
3711,4232,0.019892099999999996,-0.008937384999999999,283.0857085,95.04197690000001,-36.5625
3712,4233,0.02062745,-0.009867245,258.40000150000003,100.0139923,-12.1875
3713,4234,0.021117950000000003,-0.0117197,258.40000150000003,95.04197690000001,-36.5625
3714,4235,0.017683450000000003,-0.009216245,233.71428650000001,100.0139923,-12.1875
3715,4236,0.0216773,-0.01203135,233.71428650000001,95.04197690000001,-36.5625
3716,4237,0.015973750000000002,-0.00894442,209.028572,100.0139923,-12.1875
3717,4238,0.020864399999999998,-0.01169915,209.028572,95.04197690000001,-36.5625
3718,4239,0.015727650000000003,-0.00906585,184.34285749999998,100.0139923,-12.1875
3719,4240,0.019882199999999996,-0.01119135,184.34285749999998,95.04197690000001,-36.5625
3720,4241,0.06325875,-0.0013276249999999998,1373.5,-2.435684085,-490.559204
3721,4242,0.04813345,-0.017145399999999998,1373.5,-7.307050825,-466.67762749999997
3722,4243,0.0463314,-0.011116,1373.5,-12.178417465,-442.796051
3723,4244,0.04538865,-0.01208035,1373.5,-17.049784199999998,-418.9144745
3724,4245,0.04487715,-0.0116794,1373.5,-21.921150675,-395.032898
3725,4246,0.0444099,-0.01173735,1373.5,-26.792517174999997,-371.1513215
3726,4247,0.043935600000000005,-0.01171055,1373.5,-31.663883674999997,-347.26974500000006
3727,4248,0.04348965,-0.01171395,1373.5,-36.535251599999995,-323.388153
3728,4249,0.0430342,-0.0117121,1373.5,-41.406618099999996,-299.5065765
3729,4250,0.04258905,-0.011712300000000002,1373.5,-46.277984599999996,-275.625
3730,4251,0.04214495,-0.011712199999999999,1373.5,-51.14935299999999,-251.743416
3731,4252,0.0417024,-0.011712150000000001,1373.5,-56.0207195,-227.86183949999997
3732,4253,0.041268450000000005,-0.01171235,1373.5,-60.89208599999999,-203.98026249999998
3733,4254,0.0408269,-0.01171135,1373.5,-65.7634525,-180.09868600000001
3734,4255,0.0404116,-0.0117148,1373.5,-70.634819,-156.2171095
3735,4256,0.039942599999999995,-0.011699600000000001,1373.5,-75.50618739999999,-132.335529
3736,4257,0.03965485,-0.0117535,1373.5,-80.377553925,-108.45394885000002
3737,4258,0.03872205,-0.01151955,1373.5,-85.24891852500001,-84.5723686
3738,4259,0.04022885,-0.0123668,1373.5,-90.120285,-60.69078825
3739,4260,0.0317834,0.009045875,1348.5,-2.43568468,-490.559204
3740,4261,0.052962949999999995,-0.01437095,1348.5,-7.307051179999999,-466.67762749999997
3741,4262,0.0429578,-0.010457649999999999,1348.5,-12.1784177,-442.796051
3742,4263,0.04550775,-0.01201135,1348.5,-17.049784199999998,-418.9144745
3743,4264,0.0444649,-0.01177455,1348.5,-21.9211502,-395.032898
3744,4265,0.04421565,-0.01187815,1348.5,-26.7925167,-371.1513215
3745,4266,0.0437323,-0.01186405,1348.5,-31.6638832,-347.26974500000006
3746,4267,0.0433047,-0.011871,1348.5,-36.535251599999995,-323.388153
3747,4268,0.042862399999999995,-0.011870200000000001,1348.5,-41.406618099999996,-299.5065765
3748,4269,0.04242805,-0.01187065,1348.5,-46.277984599999996,-275.625
3749,4270,0.0419958,-0.01187065,1348.5,-51.14935299999999,-251.743416
3750,4271,0.0415649,-0.0118706,1348.5,-56.0207195,-227.86183949999997
3751,4272,0.04114295,-0.011870849999999999,1348.5,-60.89208599999999,-203.98026249999998
3752,4273,0.04071374999999999,-0.011869999999999999,1348.5,-65.7634525,-180.09868600000001
3753,4274,0.04030635,-0.011873850000000002,1348.5,-70.634819,-156.2171095
3754,4275,0.0398799,-0.0118603,1348.5,-75.50618739999999,-132.335529
3755,4276,0.0394792,-0.0119198,1348.5,-80.377552,-108.45394885000002
3756,4277,0.0391279,-0.011706149999999999,1348.5,-85.2489166,-84.5723686
3757,4278,0.038556999999999994,-0.0126264,1348.5,-90.120285,-60.69078825
3758,4279,0.07869255,0.004684595,1323.5,-2.43568468,-490.559204
3759,4280,0.03087775,-0.005513505,1323.5,-7.307051179999999,-466.67762749999997
3760,4281,0.023947199999999995,-0.007459835,1323.5,-12.1784177,-442.796051
3761,4282,0.024263350000000003,-0.00981319,1323.5,-17.049784199999998,-418.9144745
3762,4283,0.02465355,-0.0106649,1323.5,-21.9211502,-395.032898
3763,4284,0.0247397,-0.0109036,1323.5,-26.7925167,-371.1513215
3764,4285,0.024286000000000002,-0.010831650000000002,1323.5,-31.6638832,-347.26974500000006
3765,4286,0.0239915,-0.0107954,1323.5,-36.535251599999995,-323.388153
3766,4287,0.023469900000000002,-0.0106698,1323.5,-41.406618099999996,-299.5065765
3767,4288,0.023127500000000002,-0.010635450000000001,1323.5,-46.277984599999996,-275.625
3768,4289,0.0226832,-0.0105659,1323.5,-51.14935299999999,-251.743416
3769,4290,0.02235155,-0.010542850000000001,1323.5,-56.0207195,-227.86183949999997
3770,4291,0.021944449999999997,-0.010501,1323.5,-60.89208599999999,-203.98026249999998
3771,4292,0.021642750000000002,-0.010488250000000001,1323.5,-65.7634525,-180.09868600000001
3772,4293,0.0212431,-0.0104671,1323.5,-70.634819,-156.2171095
3773,4294,0.0211742,-0.0105849,1323.5,-75.50618739999999,-132.335529
3774,4295,0.021199250000000003,-0.010825000000000001,1323.5,-80.377552,-108.45394885000002
3775,4296,0.02264465,-0.0117429,1323.5,-85.2489166,-84.5723686
3776,4297,0.02693545,-0.01398415,1323.5,-90.120285,-60.69078825
3777,4298,0.0558836,0.021072,1298.5,-2.43568468,-490.559204
3778,4299,0.032573500000000005,-0.0069336,1298.5,-7.307051179999999,-466.67762749999997
3779,4300,0.02313825,-0.009669605,1298.5,-12.1784177,-442.796051
3780,4301,0.0251242,-0.01178955,1298.5,-17.049784199999998,-418.9144745
3781,4302,0.024215,-0.011504899999999998,1298.5,-21.9211502,-395.032898
3782,4303,0.023637000000000002,-0.01120655,1298.5,-26.7925167,-371.1513215
3783,4304,0.02323675,-0.011049699999999999,1298.5,-31.6638832,-347.26974500000006
3784,4305,0.02274,-0.0108633,1298.5,-36.535251599999995,-323.388153
3785,4306,0.022424,-0.010818949999999999,1298.5,-41.406618099999996,-299.5065765
3786,4307,0.022074049999999998,-0.010750699999999998,1298.5,-46.277984599999996,-275.625
3787,4308,0.0217886,-0.010733949999999999,1298.5,-51.14935299999999,-251.743416
3788,4309,0.02150075,-0.0107031,1298.5,-56.0207195,-227.86183949999997
3789,4310,0.0212172,-0.010683350000000001,1298.5,-60.89208599999999,-203.98026249999998
3790,4311,0.0209224,-0.0106473,1298.5,-65.7634525,-180.09868600000001
3791,4312,0.02057755,-0.010588150000000001,1298.5,-70.634819,-156.2171095
3792,4313,0.020105849999999998,-0.010463375,1298.5,-75.50618739999999,-132.335529
3793,4314,0.01977535,-0.01041605,1298.5,-80.377552,-108.45394885000002
3794,4315,0.01925535,-0.010141235,1298.5,-85.2489166,-84.5723686
3795,4316,0.022379800000000002,-0.011913199999999999,1298.5,-90.120285,-60.69078825
3796,4317,0.03330225,0.0173122,1273.5,-2.43568468,-490.559204
3797,4318,0.015864,0.001947186,1273.5,-7.307051179999999,-466.67762749999997
3798,4319,0.026410749999999997,-0.012474699999999998,1273.5,-12.1784177,-442.796051
3799,4320,0.0245396,-0.01172985,1273.5,-17.049784199999998,-418.9144745
3800,4321,0.024561149999999997,-0.01182315,1273.5,-21.9211502,-395.032898
3801,4322,0.0233957,-0.011319699999999999,1273.5,-26.7925167,-371.1513215
3802,4323,0.022793849999999997,-0.011031099999999999,1273.5,-31.6638832,-347.26974500000006
3803,4324,0.02233325,-0.010935799999999999,1273.5,-36.535251599999995,-323.388153
3804,4325,0.02203525,-0.01087705,1273.5,-41.406618099999996,-299.5065765
3805,4326,0.021756249999999998,-0.010867350000000001,1273.5,-46.277984599999996,-275.625
3806,4327,0.021534949999999997,-0.010862049999999998,1273.5,-51.14935299999999,-251.743416
3807,4328,0.02129665,-0.010858350000000001,1273.5,-56.0207195,-227.86183949999997
3808,4329,0.021082249999999997,-0.0108514,1273.5,-60.89208599999999,-203.98026249999998
3809,4330,0.02081035,-0.01081205,1273.5,-65.7634525,-180.09868600000001
3810,4331,0.0204947,-0.0107314,1273.5,-70.634819,-156.2171095
3811,4332,0.02000215,-0.01054195,1273.5,-75.50618739999999,-132.335529
3812,4333,0.01907955,-0.01007128,1273.5,-80.377552,-108.45394885000002
3813,4334,0.01904215,-0.01016045,1273.5,-85.2489166,-84.5723686
3814,4335,0.01740885,-0.009242714999999999,1273.5,-90.120285,-60.69078825
3815,4336,0.0405218,0.02201645,1248.5,-2.43568468,-490.559204
3816,4337,0.00944929,-0.004085565,1248.5,-7.307051179999999,-466.67762749999997
3817,4338,0.020918100000000002,-0.0074047950000000005,1248.5,-12.1784177,-442.796051
3818,4339,0.024278,-0.01081725,1248.5,-17.049784199999998,-418.9144745
3819,4340,0.0235301,-0.010712,1248.5,-21.9211502,-395.032898
3820,4341,0.0235212,-0.01094035,1248.5,-26.7925167,-371.1513215
3821,4342,0.022913950000000002,-0.0108765,1248.5,-31.6638832,-347.26974500000006
3822,4343,0.022746099999999998,-0.0109314,1248.5,-36.535251599999995,-323.388153
3823,4344,0.0224312,-0.01093545,1248.5,-41.406618099999996,-299.5065765
3824,4345,0.022257600000000002,-0.01097925,1248.5,-46.277984599999996,-275.625
3825,4346,0.022022,-0.01099075,1248.5,-51.14935299999999,-251.743416
3826,4347,0.021822800000000003,-0.011016749999999999,1248.5,-56.0207195,-227.86183949999997
3827,4348,0.021613800000000002,-0.01101995,1248.5,-60.89208599999999,-203.98026249999998
3828,4349,0.021393750000000003,-0.011022649999999998,1248.5,-65.7634525,-180.09868600000001
3829,4350,0.021183650000000002,-0.01099455,1248.5,-70.634819,-156.2171095
3830,4351,0.02089055,-0.01091535,1248.5,-75.50618739999999,-132.335529
3831,4352,0.0208553,-0.0109263,1248.5,-80.377552,-108.45394885000002
3832,4353,0.020302550000000003,-0.01073265,1248.5,-85.2489166,-84.5723686
3833,4354,0.02371885,-0.012624,1248.5,-90.120285,-60.69078825
3834,4355,0.049824349999999996,0.009827875,1223.5,-2.4356840876332786,-490.559204
3835,4356,0.0159369,-0.000322244,1223.5,-7.307050825,-466.67762749999997
3836,4357,0.015803555000000004,-0.00484982,1223.5,-12.178417465,-442.796051
3837,4358,0.02083135,-0.007644125,1223.5,-17.049784199999998,-418.9144745
3838,4359,0.0235582,-0.009836415000000001,1223.5,-21.921150675,-395.032898
3839,4360,0.0238678,-0.010294049999999999,1223.5,-26.792517175,-371.1513215
3840,4361,0.024251550000000004,-0.010825600000000001,1223.5,-31.663883675,-347.26974500000006
3841,4362,0.0240154,-0.0109017,1223.5,-36.535251599999995,-323.388153
3842,4363,0.023885950000000003,-0.01105275,1223.5,-41.406618099999996,-299.5065765
3843,4364,0.0236195,-0.01107915,1223.5,-46.277984599999996,-275.625
3844,4365,0.023377099999999998,-0.01114195,1223.5,-51.14935299999999,-251.743416
3845,4366,0.023125899999999998,-0.0111593,1223.5,-56.0207195,-227.86183949999997
3846,4367,0.0228451,-0.011192400000000002,1223.5,-60.89208599999999,-203.98026249999998
3847,4368,0.022655750000000002,-0.01122215,1223.5,-65.7634525,-180.09868600000001
3848,4369,0.022406000000000002,-0.0112672,1223.5,-70.634819,-156.2171095
3849,4370,0.02252805,-0.011455199999999999,1223.5,-75.50618739999999,-132.335529
3850,4371,0.022711,-0.011794700000000002,1223.5,-80.377553925,-108.45394885000002
3851,4372,0.0242045,-0.012853549999999998,1223.5,-85.248918525,-84.5723686
3852,4373,0.027268800000000003,-0.01528905,1223.5,-90.120285,-60.69078825
3853,4374,0.07747065,-0.01539795,1023.6571349999999,90.120285,-60.690788250000004
3854,4375,0.068542,-0.01461225,1023.6571349999999,85.248918525,-84.5723686
3855,4376,0.06086129999999999,-0.012833400000000002,1023.6571349999999,80.377553925,-108.45394885000002
3856,4377,0.05393005,-0.01208675,1023.6571349999999,75.50618739999999,-132.335529
3857,4378,0.0472983,-0.011029649999999998,1023.6571349999999,70.634819,-156.2171095
3858,4379,0.041077749999999996,-0.01049145,1023.6571349999999,65.7634525,-180.098686
3859,4380,0.0349832,-0.009852315,1023.6571349999999,60.892086,-203.9802625
3860,4381,0.0293666,-0.009582085,1023.6571349999999,56.0207195,-227.86183949999997
3861,4382,0.0240554,-0.0092651,1023.6571349999999,51.14935299999999,-251.74341599999997
3862,4383,0.019858300000000002,-0.009290284999999999,1023.6571349999999,46.277984599999996,-275.625
3863,4384,0.016875,-0.009237905000000001,1023.6571349999999,41.406618099999996,-299.5065765
3864,4385,0.016695799999999997,-0.00958373,1023.6571349999999,36.535251599999995,-323.388153
3865,4386,0.01857425,-0.009720055,1023.6571349999999,31.663883674999997,-347.269745
3866,4387,0.023105300000000002,-0.01046995,1023.6571349999999,26.792517174999997,-371.1513215
3867,4388,0.02837745,-0.01065485,1023.6571349999999,21.921150674999996,-395.032898
3868,4389,0.0356563,-0.012163,1023.6571349999999,17.049784199999998,-418.9144745
3869,4390,0.04392525,-0.01209725,1023.6571349999999,12.178417465,-442.796051
3870,4391,0.05570270000000001,-0.0160808,1023.6571349999999,7.307050824999999,-466.67762749999997
3871,4392,0.0822507,-0.013594450000000001,1023.6571349999999,2.435684085,-490.559204
3872,4393,0.0803081,-0.017327350000000002,998.9714355,90.120285,-60.690788250000004
3873,4394,0.07218225,-0.01586335,998.9714355,85.2489166,-84.5723686
3874,4395,0.06364254999999999,-0.014914550000000002,998.9714355,80.377552,-108.45394885000002
3875,4396,0.056669800000000006,-0.013778249999999999,998.9714355,75.50618739999999,-132.335529
3876,4397,0.049795099999999995,-0.013084100000000001,998.9714355,70.634819,-156.2171095
3877,4398,0.043426950000000006,-0.0123286,998.9714355,65.7634525,-180.098686
3878,4399,0.037382700000000005,-0.0119136,998.9714355,60.892086,-203.9802625
3879,4400,0.03167825,-0.011484850000000001,998.9714355,56.0207195,-227.86183949999997
3880,4401,0.02676025,-0.0113608,998.9714355,51.14935299999999,-251.74341599999997
3881,4402,0.02261825,-0.011217650000000001,998.9714355,46.277984599999996,-275.625
3882,4403,0.0204033,-0.0113885,998.9714355,41.406618099999996,-299.5065765
3883,4404,0.02004595,-0.011492200000000001,998.9714355,36.535251599999995,-323.388153
3884,4405,0.02235895,-0.011969299999999999,998.9714355,31.6638832,-347.269745
3885,4406,0.0263768,-0.012257549999999999,998.9714355,26.7925167,-371.1513215
3886,4407,0.03174335,-0.013066300000000001,998.9714355,21.9211502,-395.032898
3887,4408,0.039185899999999996,-0.01341685,998.9714355,17.049784199999998,-418.9144745
3888,4409,0.0462102,-0.0143619,998.9714355,12.1784177,-442.796051
3889,4410,0.06230569999999999,-0.014590200000000001,998.9714355,7.30705118,-466.67762749999997
3890,4411,0.0670802,-0.004628335,998.9714355,2.43568468,-490.559204
3891,4412,0.08403,-0.016969199999999997,974.285736,90.120285,-60.690788250000004
3892,4413,0.07365949999999999,-0.0162696,974.285736,85.2489166,-84.5723686
3893,4414,0.0664837,-0.01581035,974.285736,80.377552,-108.45394885000002
3894,4415,0.0587027,-0.015066099999999999,974.285736,75.50618739999999,-132.335529
3895,4416,0.052095600000000006,-0.0144117,974.285736,70.634819,-156.2171095
3896,4417,0.0454926,-0.013886100000000002,974.285736,65.7634525,-180.098686
3897,4418,0.039441000000000004,-0.0134214,974.285736,60.892086,-203.9802625
3898,4419,0.03387205,-0.0131658,974.285736,56.0207195,-227.86183949999997
3899,4420,0.02893015,-0.01295015,974.285736,51.14935299999999,-251.74341599999997
3900,4421,0.02526855,-0.012957550000000002,974.285736,46.277984599999996,-275.625
3901,4422,0.023037349999999998,-0.01299115,974.285736,41.406618099999996,-299.5065765
3902,4423,0.02309365,-0.01322905,974.285736,36.535251599999995,-323.388153
3903,4424,0.0252934,-0.01349435,974.285736,31.6638832,-347.269745
3904,4425,0.028936200000000002,-0.0138454,974.285736,26.7925167,-371.1513215
3905,4426,0.03487,-0.014253099999999998,974.285736,21.9211502,-395.032898
3906,4427,0.039924,-0.01413755,974.285736,17.049784199999998,-418.9144745
3907,4428,0.04997265,-0.01430895,974.285736,12.1784177,-442.796051
3908,4429,0.05455415,-0.00929458,974.285736,7.30705118,-466.67762749999997
3909,4430,0.0588689,-0.005181245,974.285736,2.43568468,-490.559204
3910,4431,0.08264925,-0.01449005,949.6000060000001,90.120285,-60.690788250000004
3911,4432,0.07548060000000001,-0.0160767,949.6000060000001,85.2489166,-84.5723686
3912,4433,0.06732284999999999,-0.0158,949.6000060000001,80.377552,-108.45394885000002
3913,4434,0.0606323,-0.01573695,949.6000060000001,75.50618739999999,-132.335529
3914,4435,0.0535304,-0.015261499999999999,949.6000060000001,70.634819,-156.2171095
3915,4436,0.04723685,-0.01494845,949.6000060000001,65.7634525,-180.098686
3916,4437,0.0411036,-0.0146325,949.6000060000001,60.892086,-203.9802625
3917,4438,0.0356026,-0.014418750000000001,949.6000060000001,56.0207195,-227.86183949999997
3918,4439,0.0308929,-0.01430905,949.6000060000001,51.14935299999999,-251.74341599999997
3919,4440,0.0272607,-0.0142788,949.6000060000001,46.277984599999996,-275.625
3920,4441,0.025326800000000003,-0.0143389,949.6000060000001,41.406618099999996,-299.5065765
3921,4442,0.02543985,-0.01451195,949.6000060000001,36.535251599999995,-323.388153
3922,4443,0.0272521,-0.01460725,949.6000060000001,31.6638832,-347.269745
3923,4444,0.03145505,-0.014945700000000001,949.6000060000001,26.7925167,-371.1513215
3924,4445,0.03532015,-0.014581050000000002,949.6000060000001,21.9211502,-395.032898
3925,4446,0.042300149999999995,-0.0147352,949.6000060000001,17.049784199999998,-418.9144745
3926,4447,0.04604615,-0.0119486,949.6000060000001,12.1784177,-442.796051
3927,4448,0.05122855,-0.009852805,949.6000060000001,7.30705118,-466.67762749999997
3928,4449,0.0545722,-0.00514976,949.6000060000001,2.43568468,-490.559204
3929,4450,0.0809106,-0.0133247,924.914276,90.120285,-60.690788250000004
3930,4451,0.07455275,-0.014623500000000001,924.914276,85.2489166,-84.5723686
3931,4452,0.06810095,-0.015715350000000003,924.914276,80.377552,-108.45394885000002
3932,4453,0.061044799999999996,-0.01566735,924.914276,75.50618739999999,-132.335529
3933,4454,0.054695900000000006,-0.01581055,924.914276,70.634819,-156.2171095
3934,4455,0.04822555,-0.0155998,924.914276,65.7634525,-180.098686
3935,4456,0.042397149999999995,-0.015539149999999998,924.914276,60.892086,-203.9802625
3936,4457,0.0369795,-0.01540715,924.914276,56.0207195,-227.86183949999997
3937,4458,0.0324126,-0.015382600000000001,924.914276,51.14935299999999,-251.74341599999997
3938,4459,0.02896165,-0.0153416,924.914276,46.277984599999996,-275.625
3939,4460,0.027150399999999998,-0.0154261,924.914276,41.406618099999996,-299.5065765
3940,4461,0.026983149999999997,-0.0153785,924.914276,36.535251599999995,-323.388153
3941,4462,0.0291849,-0.015577500000000001,924.914276,31.6638832,-347.269745
3942,4463,0.031896100000000004,-0.0151991,924.914276,26.7925167,-371.1513215
3943,4464,0.03703945,-0.01535605,924.914276,21.9211502,-395.032898
3944,4465,0.040390300000000004,-0.01367845,924.914276,17.049784199999998,-418.9144745
3945,4466,0.04526565,-0.012759099999999999,924.914276,12.1784177,-442.796051
3946,4467,0.0479656,-0.009262,924.914276,7.30705118,-466.67762749999997
3947,4468,0.05051025000000001,-0.00615106,924.914276,2.43568468,-490.559204
3948,4469,0.0785611,-0.011832099999999998,900.2285764999999,90.120285,-60.690788250000004
3949,4470,0.0731851,-0.013930050000000001,900.2285764999999,85.2489166,-84.5723686
3950,4471,0.06724234999999999,-0.014804849999999998,900.2285764999999,80.377552,-108.45394885000002
3951,4472,0.061137449999999996,-0.01568545,900.2285764999999,75.50618739999999,-132.335529
3952,4473,0.05480515,-0.01585535,900.2285764999999,70.634819,-156.2171095
3953,4474,0.0489117,-0.016155799999999998,900.2285764999999,65.7634525,-180.098686
3954,4475,0.0431667,-0.01616095,900.2285764999999,60.892086,-203.9802625
3955,4476,0.038095050000000005,-0.016272000000000002,900.2285764999999,56.0207195,-227.86183949999997
3956,4477,0.033676,-0.01623695,900.2285764999999,51.14935299999999,-251.74341599999997
3957,4478,0.030458350000000002,-0.016306849999999998,900.2285764999999,46.277984599999996,-275.625
3958,4479,0.028492000000000003,-0.016198999999999998,900.2285764999999,41.406618099999996,-299.5065765
3959,4480,0.028571899999999997,-0.0162696,900.2285764999999,36.535251599999995,-323.388153
3960,4481,0.0297195,-0.015906999999999998,900.2285764999999,31.6638832,-347.269745
3961,4482,0.0331085,-0.015926950000000002,900.2285764999999,26.7925167,-371.1513215
3962,4483,0.036089949999999996,-0.014837300000000001,900.2285764999999,21.9211502,-395.032898
3963,4484,0.04053045,-0.014501,900.2285764999999,17.049784199999998,-418.9144745
3964,4485,0.04319730000000001,-0.01213185,900.2285764999999,12.1784177,-442.796051
3965,4486,0.04585085,-0.0104505,900.2285764999999,7.30705118,-466.67762749999997
3966,4487,0.047288,-0.006889060000000001,900.2285764999999,2.43568468,-490.559204
3967,4488,0.0754933,-0.01097565,875.5428769999999,90.120285,-60.690788250000004
3968,4489,0.07114075,-0.01275895,875.5428769999999,85.2489166,-84.5723686
3969,4490,0.06575045,-0.014391050000000002,875.5428769999999,80.377552,-108.45394885000002
3970,4491,0.06020765,-0.01524505,875.5428769999999,75.50618739999999,-132.335529
3971,4492,0.05457065,-0.01609455,875.5428769999999,70.634819,-156.2171095
3972,4493,0.0489709,-0.0164555,875.5428769999999,65.7634525,-180.098686
3973,4494,0.04379705,-0.016866449999999998,875.5428769999999,60.892086,-203.9802625
3974,4495,0.0389606,-0.016984850000000003,875.5428769999999,56.0207195,-227.86183949999997
3975,4496,0.034967899999999996,-0.01716485,875.5428769999999,51.14935299999999,-251.74341599999997
3976,4497,0.03175649999999999,-0.01709415,875.5428769999999,46.277984599999996,-275.625
3977,4498,0.03006445,-0.01712425,875.5428769999999,41.406618099999996,-299.5065765
3978,4499,0.02943325,-0.0167894,875.5428769999999,36.535251599999995,-323.388153
3979,4500,0.0308265,-0.016661250000000002,875.5428769999999,31.6638832,-347.269745
3980,4501,0.0326965,-0.01583955,875.5428769999999,26.7925167,-371.1513215
3981,4502,0.03609205,-0.015446350000000001,875.5428769999999,21.9211502,-395.032898
3982,4503,0.03915295,-0.01385045,875.5428769999999,17.049784199999998,-418.9144745
3983,4504,0.04232205,-0.013202499999999999,875.5428769999999,12.1784177,-442.796051
3984,4505,0.0437062,-0.0105145,875.5428769999999,7.30705118,-466.67762749999997
3985,4506,0.044699,-0.00817096,875.5428769999999,2.43568468,-490.559204
3986,4507,0.07229384999999999,-0.00975154,850.8571469999999,90.120285,-60.690788250000004
3987,4508,0.06799720000000001,-0.012090649999999998,850.8571469999999,85.2489166,-84.5723686
3988,4509,0.0637099,-0.013784399999999999,850.8571469999999,80.377552,-108.45394885000002
3989,4510,0.05873885,-0.01527075,850.8571469999999,75.50618739999999,-132.335529
3990,4511,0.05380895,-0.01621945,850.8571469999999,70.634819,-156.2171095
3991,4512,0.048939800000000006,-0.017083549999999996,850.8571469999999,65.7634525,-180.098686
3992,4513,0.04422175,-0.01753305,850.8571469999999,60.892086,-203.9802625
3993,4514,0.04003785,-0.01796795,850.8571469999999,56.0207195,-227.86183949999997
3994,4515,0.03625855,-0.0180591,850.8571469999999,51.14935299999999,-251.74341599999997
3995,4516,0.0335077,-0.0181788,850.8571469999999,46.277984599999996,-275.625
3996,4517,0.0314601,-0.01792545,850.8571469999999,41.406618099999996,-299.5065765
3997,4518,0.0309835,-0.0177515,850.8571469999999,36.535251599999995,-323.388153
3998,4519,0.03119995,-0.01706235,850.8571469999999,31.6638832,-347.269745
3999,4520,0.032956799999999994,-0.01652625,850.8571469999999,26.7925167,-371.1513215
4000,4521,0.0350694,-0.015263099999999998,850.8571469999999,21.9211502,-395.032898
4001,4522,0.03765945,-0.014306550000000001,850.8571469999999,17.049784199999998,-418.9144745
4002,4523,0.040767399999999995,-0.01241735,850.8571469999999,12.1784177,-442.796051
4003,4524,0.0426459,-0.0119254,850.8571469999999,7.30705118,-466.67762749999997
4004,4525,0.0413928,-0.00860027,850.8571469999999,2.43568468,-490.559204
4005,4526,0.06734499999999999,-0.00884464,826.171417,90.120285,-60.690788250000004
4006,4527,0.06470624999999999,-0.011580350000000001,826.171417,85.2489166,-84.5723686
4007,4528,0.06088615,-0.01376795,826.171417,80.377552,-108.45394885000002
4008,4529,0.05709245,-0.01548975,826.171417,75.50618739999999,-132.335529
4009,4530,0.052981099999999996,-0.016915350000000003,826.171417,70.634819,-156.2171095
4010,4531,0.04888765,-0.017870749999999998,826.171417,65.7634525,-180.098686
4011,4532,0.04502365,-0.01869,826.171417,60.892086,-203.9802625
4012,4533,0.0412903,-0.01907975,826.171417,56.0207195,-227.86183949999997
4013,4534,0.038212399999999994,-0.01942285,826.171417,51.14935299999999,-251.74341599999997
4014,4535,0.0354496,-0.019341749999999998,826.171417,46.277984599999996,-275.625
4015,4536,0.03376245,-0.019262849999999998,826.171417,41.406618099999996,-299.5065765
4016,4537,0.032512650000000004,-0.01870275,826.171417,36.535251599999995,-323.388153
4017,4538,0.0325535,-0.0181594,826.171417,31.6638832,-347.269745
4018,4539,0.03298745,-0.01705305,826.171417,26.7925167,-371.1513215
4019,4540,0.03422745,-0.015913200000000002,826.171417,21.9211502,-395.032898
4020,4541,0.03603555,-0.0142288,826.171417,17.049784199999998,-418.9144745
4021,4542,0.03721215,-0.01240415,826.171417,12.1784177,-442.796051
4022,4543,0.040613949999999996,-0.010187334999999999,826.171417,7.30705118,-466.67762749999997
4023,4544,0.04061815,-0.010445800000000002,826.171417,2.43568468,-490.559204
4024,4545,0.06257565,-0.008725395,801.4857175,90.120285,-60.690788250000004
4025,4546,0.0606035,-0.011745350000000002,801.4857175,85.2489166,-84.5723686
4026,4547,0.0583777,-0.0144159,801.4857175,80.377552,-108.45394885000002
4027,4548,0.055555400000000005,-0.016485150000000004,801.4857175,75.50618739999999,-132.335529
4028,4549,0.0525277,-0.01807475,801.4857175,70.634819,-156.2171095
4029,4550,0.04944899999999999,-0.019365800000000002,801.4857175,65.7634525,-180.098686
4030,4551,0.0462512,-0.02016625,801.4857175,60.892086,-203.9802625
4031,4552,0.043419200000000005,-0.0208341,801.4857175,56.0207195,-227.86183949999997
4032,4553,0.04058874999999999,-0.0210209,801.4857175,51.14935299999999,-251.74341599999997
4033,4554,0.03847035,-0.0211607,801.4857175,46.277984599999996,-275.625
4034,4555,0.03643945,-0.020793350000000002,801.4857175,41.406618099999996,-299.5065765
4035,4556,0.03535395,-0.020403,801.4857175,36.535251599999995,-323.388153
4036,4557,0.03435135,-0.01945455,801.4857175,31.6638832,-347.269745
4037,4558,0.03418645,-0.0184152,801.4857175,26.7925167,-371.1513215
4038,4559,0.0341206,-0.016837750000000002,801.4857175,21.9211502,-395.032898
4039,4560,0.034154050000000005,-0.014886199999999999,801.4857175,17.049784199999998,-418.9144745
4040,4561,0.034711099999999995,-0.012662550000000002,801.4857175,12.1784177,-442.796051
4041,4562,0.0336467,-0.009102349999999999,801.4857175,7.30705118,-466.67762749999997
4042,4563,0.0371339,-0.00610423,801.4857175,2.43568468,-490.559204
4043,4564,0.05309085,-0.0137025,776.8000180000001,90.120285,-60.690788250000004
4044,4565,0.04719835,-0.0134869,776.8000180000001,85.2489166,-84.5723686
4045,4566,0.042088200000000006,-0.0124667,776.8000180000001,80.377552,-108.45394885000002
4046,4567,0.037817699999999996,-0.0121613,776.8000180000001,75.50618739999999,-132.335529
4047,4568,0.03371255,-0.0115554,776.8000180000001,70.634819,-156.2171095
4048,4569,0.030141650000000002,-0.011314049999999999,776.8000180000001,65.7634525,-180.098686
4049,4570,0.026669900000000003,-0.0109277,776.8000180000001,60.892086,-203.9802625
4050,4571,0.0238098,-0.01081615,776.8000180000001,56.0207195,-227.86183949999997
4051,4572,0.02119695,-0.010596350000000001,776.8000180000001,51.14935299999999,-251.74341599999997
4052,4573,0.01956925,-0.010646899999999999,776.8000180000001,46.277984599999996,-275.625
4053,4574,0.0184518,-0.010553049999999998,776.8000180000001,41.406618099999996,-299.5065765
4054,4575,0.018793749999999998,-0.0107832,776.8000180000001,36.535251599999995,-323.388153
4055,4576,0.019643800000000003,-0.0107466,776.8000180000001,31.6638832,-347.269745
4056,4577,0.0221193,-0.011204800000000001,776.8000180000001,26.7925167,-371.1513215
4057,4578,0.024771349999999998,-0.0111014,776.8000180000001,21.9211502,-395.032898
4058,4579,0.029389949999999998,-0.012037949999999999,776.8000180000001,17.049784199999998,-418.9144745
4059,4580,0.0345053,-0.0116195,776.8000180000001,12.1784177,-442.796051
4060,4581,0.04330150000000001,-0.014346349999999997,776.8000180000001,7.30705118,-466.67762749999997
4061,4582,0.0632363,-0.011809049999999998,776.8000180000001,2.43568468,-490.559204
4062,4583,0.054963349999999994,-0.015217749999999999,752.1142880000001,90.120285,-60.690788250000004
4063,4584,0.04956135,-0.014443300000000001,752.1142880000001,85.2489166,-84.5723686
4064,4585,0.044132649999999995,-0.01399635,752.1142880000001,80.377552,-108.45394885000002
4065,4586,0.0397683,-0.01334665,752.1142880000001,75.50618739999999,-132.335529
4066,4587,0.035698850000000004,-0.01300105,752.1142880000001,70.634819,-156.2171095
4067,4588,0.031968300000000005,-0.01254625,752.1142880000001,65.7634525,-180.098686
4068,4589,0.02869575,-0.01234125,752.1142880000001,60.892086,-203.9802625
4069,4590,0.02568025,-0.012064600000000002,752.1142880000001,56.0207195,-227.86183949999997
4070,4591,0.023433050000000004,-0.012025850000000001,752.1142880000001,51.14935299999999,-251.74341599999997
4071,4592,0.02161915,-0.011905949999999998,752.1142880000001,46.277984599999996,-275.625
4072,4593,0.0210008,-0.0120427,752.1142880000001,41.406618099999996,-299.5065765
4073,4594,0.020999249999999997,-0.0120449,752.1142880000001,36.535251599999995,-323.388153
4074,4595,0.022358700000000002,-0.012358599999999999,752.1142880000001,31.6638832,-347.269745
4075,4596,0.024325600000000003,-0.012419900000000001,752.1142880000001,26.7925167,-371.1513215
4076,4597,0.027380750000000002,-0.01290985,752.1142880000001,21.9211502,-395.032898
4077,4598,0.0316769,-0.0129237,752.1142880000001,17.049784199999998,-418.9144745
4078,4599,0.0361988,-0.0134111,752.1142880000001,12.1784177,-442.796051
4079,4600,0.0474863,-0.01323255,752.1142880000001,7.30705118,-466.67762749999997
4080,4601,0.050251599999999993,-0.004947544999999999,752.1142880000001,2.43568468,-490.559204
4081,4602,0.0571764,-0.015089149999999999,727.4285580000001,90.120285,-60.690788250000004
4082,4603,0.050433,-0.014844749999999999,727.4285580000001,85.2489166,-84.5723686
4083,4604,0.04602125,-0.0147037,727.4285580000001,80.377552,-108.45394885000002
4084,4605,0.04129115,-0.0143234,727.4285580000001,75.50618739999999,-132.335529
4085,4606,0.0373788,-0.01394425,727.4285580000001,70.634819,-156.2171095
4086,4607,0.033636299999999994,-0.013657399999999998,727.4285580000001,65.7634525,-180.098686
4087,4608,0.03029425,-0.013362150000000001,727.4285580000001,60.892086,-203.9802625
4088,4609,0.02748195,-0.01323195,727.4285580000001,56.0207195,-227.86183949999997
4089,4610,0.02509545,-0.0130824,727.4285580000001,51.14935299999999,-251.74341599999997
4090,4611,0.023637900000000003,-0.0131177,727.4285580000001,46.277984599999996,-275.625
4091,4612,0.0228242,-0.01311405,727.4285580000001,41.406618099999996,-299.5065765
4092,4613,0.02316435,-0.013290350000000001,727.4285580000001,36.535251599999995,-323.388153
4093,4614,0.02432265,-0.01340285,727.4285580000001,31.6638832,-347.269745
4094,4615,0.026243049999999997,-0.0136119,727.4285580000001,26.7925167,-371.1513215
4095,4616,0.029432550000000002,-0.013742999999999998,727.4285580000001,21.9211502,-395.032898
4096,4617,0.032126550000000004,-0.013492649999999998,727.4285580000001,17.049784199999998,-418.9144745
4097,4618,0.03843555,-0.0133187,727.4285580000001,12.1784177,-442.796051
4098,4619,0.0405658,-0.009053565,727.4285580000001,7.30705118,-466.67762749999997
4099,4620,0.04301535,-0.0050945999999999995,727.4285580000001,2.43568468,-490.559204
4100,4621,0.05560205,-0.013390099999999999,702.7428585,90.120285,-60.690788250000004
4101,4622,0.05146155,-0.0148079,702.7428585,85.2489166,-84.5723686
4102,4623,0.046513700000000005,-0.01479525,702.7428585,80.377552,-108.45394885000002
4103,4624,0.04262540000000001,-0.0148514,702.7428585,75.50618739999999,-132.335529
4104,4625,0.038493150000000004,-0.0145963,702.7428585,70.634819,-156.2171095
4105,4626,0.034948400000000004,-0.014404700000000001,702.7428585,65.7634525,-180.098686
4106,4627,0.0316438,-0.01422145,702.7428585,60.892086,-203.9802625
4107,4628,0.02881145,-0.0140777,702.7428585,56.0207195,-227.86183949999997
4108,4629,0.026629800000000002,-0.0140272,702.7428585,51.14935299999999,-251.74341599999997
4109,4630,0.025076099999999997,-0.01400165,702.7428585,46.277984599999996,-275.625
4110,4631,0.024468749999999997,-0.01406435,702.7428585,41.406618099999996,-299.5065765
4111,4632,0.02474655,-0.0141597,702.7428585,36.535251599999995,-323.388153
4112,4633,0.025741299999999998,-0.014222950000000002,702.7428585,31.6638832,-347.269745
4113,4634,0.02792455,-0.0143708,702.7428585,26.7925167,-371.1513215
4114,4635,0.029702350000000002,-0.01400595,702.7428585,21.9211502,-395.032898
4115,4636,0.033552849999999995,-0.013867,702.7428585,17.049784199999998,-418.9144745
4116,4637,0.03484845,-0.011439600000000001,702.7428585,12.1784177,-442.796051
4117,4638,0.037427249999999995,-0.0092514,702.7428585,7.30705118,-466.67762749999997
4118,4639,0.0388293,-0.004933995,702.7428585,2.43568468,-490.559204
4119,4640,0.05393365,-0.01263575,678.057159,90.120285,-60.690788250000004
4120,4641,0.0504951,-0.01387225,678.057159,85.2489166,-84.5723686
4121,4642,0.0469638,-0.0148043,678.057159,80.377552,-108.45394885000002
4122,4643,0.0429017,-0.014872549999999998,678.057159,75.50618739999999,-132.335529
4123,4644,0.03935545,-0.0150018,678.057159,70.634819,-156.2171095
4124,4645,0.0357462,-0.0148801,678.057159,65.7634525,-180.098686
4125,4646,0.03263805,-0.0148374,678.057159,60.892086,-203.9802625
4126,4647,0.029894900000000002,-0.01475595,678.057159,56.0207195,-227.86183949999997
4127,4648,0.0277466,-0.01473875,678.057159,51.14935299999999,-251.74341599999997
4128,4649,0.0263,-0.01472375,678.057159,46.277984599999996,-275.625
4129,4650,0.02570235,-0.01478235,678.057159,41.406618099999996,-299.5065765
4130,4651,0.025805250000000002,-0.014758799999999999,678.057159,36.535251599999995,-323.388153
4131,4652,0.027032550000000002,-0.01486715,678.057159,31.6638832,-347.269745
4132,4653,0.02821275,-0.014557649999999998,678.057159,26.7925167,-371.1513215
4133,4654,0.03081905,-0.014506600000000001,678.057159,21.9211502,-395.032898
4134,4655,0.031833799999999995,-0.0130556,678.057159,17.049784199999998,-418.9144745
4135,4656,0.033927200000000005,-0.011893750000000002,678.057159,12.1784177,-442.796051
4136,4657,0.0343334,-0.0087016,678.057159,7.30705118,-466.67762749999997
4137,4658,0.03490425,-0.005518845,678.057159,2.43568468,-490.559204
4138,4659,0.051924399999999996,-0.01170655,653.371429,90.120285,-60.690788250000004
4139,4660,0.049360600000000004,-0.013452100000000002,653.371429,85.2489166,-84.5723686
4140,4661,0.0462538,-0.01424225,653.371429,80.377552,-108.45394885000002
4141,4662,0.04299185,-0.014902250000000002,653.371429,75.50618739999999,-132.335529
4142,4663,0.039465799999999995,-0.0150459,653.371429,70.634819,-156.2171095
4143,4664,0.036305,-0.015248600000000001,653.371429,65.7634525,-180.098686
4144,4665,0.033254149999999996,-0.015244700000000002,653.371429,60.892086,-203.9802625
4145,4666,0.03073215,-0.015315949999999998,653.371429,56.0207195,-227.86183949999997
4146,4667,0.0286468,-0.015287150000000003,653.371429,51.14935299999999,-251.74341599999997
4147,4668,0.0273077,-0.01534065,653.371429,46.277984599999996,-275.625
4148,4669,0.026553649999999998,-0.015267349999999999,653.371429,41.406618099999996,-299.5065765
4149,4670,0.0268239,-0.015319349999999999,653.371429,36.535251599999995,-323.388153
4150,4671,0.02733355,-0.015050750000000002,653.371429,31.6638832,-347.269745
4151,4672,0.029037399999999998,-0.01500435,653.371429,26.7925167,-371.1513215
4152,4673,0.030010150000000003,-0.014121600000000002,653.371429,21.9211502,-395.032898
4153,4674,0.03184865,-0.013560449999999998,653.371429,17.049784199999998,-418.9144745
4154,4675,0.03204515,-0.01143705,653.371429,12.1784177,-442.796051
4155,4676,0.03222375,-0.009447035,653.371429,7.30705118,-466.67762749999997
4156,4677,0.03171665,-0.005969475,653.371429,2.43568468,-490.559204
4157,4678,0.04953175,-0.011219799999999999,628.685699,90.120285,-60.690788250000004
4158,4679,0.047822699999999996,-0.01275455,628.685699,85.2489166,-84.5723686
4159,4680,0.0452413,-0.013955849999999999,628.685699,80.377552,-108.45394885000002
4160,4681,0.04233035,-0.014591,628.685699,75.50618739999999,-132.335529
4161,4682,0.03939465,-0.015175999999999999,628.685699,70.634819,-156.2171095
4162,4683,0.03639715,-0.0154073,628.685699,65.7634525,-180.098686
4163,4684,0.0337769,-0.015680649999999997,628.685699,60.892086,-203.9802625
4164,4685,0.031353450000000005,-0.0157391,628.685699,56.0207195,-227.86183949999997
4165,4686,0.029535449999999998,-0.0158636,628.685699,51.14935299999999,-251.74341599999997
4166,4687,0.028097650000000002,-0.01579755,628.685699,46.277984599999996,-275.625
4167,4688,0.02751935,-0.015828599999999998,628.685699,41.406618099999996,-299.5065765
4168,4689,0.02724755,-0.01557615,628.685699,36.535251599999995,-323.388153
4169,4690,0.028026,-0.01548275,628.685699,31.6638832,-347.269745
4170,4691,0.028617550000000002,-0.014851350000000001,628.685699,26.7925167,-371.1513215
4171,4692,0.0300802,-0.014461650000000003,628.685699,21.9211502,-395.032898
4172,4693,0.0307239,-0.01315365,628.685699,17.049784199999998,-418.9144745
4173,4694,0.03127885,-0.012144600000000002,628.685699,12.1784177,-442.796051
4174,4695,0.03021195,-0.00956881,628.685699,7.30705118,-466.67762749999997
4175,4696,0.02892455,-0.006815175,628.685699,2.43568468,-490.559204
4176,4697,0.047203499999999995,-0.01059855,604.0,90.120285,-60.690788250000004
4177,4698,0.045711550000000004,-0.0122865,604.0,85.2489166,-84.5723686
4178,4699,0.04379975,-0.013510250000000001,604.0,80.377552,-108.45394885000002
4179,4700,0.04143225,-0.01454535,604.0,75.50618739999999,-132.335529
4180,4701,0.038909349999999995,-0.01517945,604.0,70.634819,-156.2171095
4181,4702,0.036506250000000004,-0.015769,604.0,65.7634525,-180.098686
4182,4703,0.0341153,-0.016044500000000003,604.0,60.892086,-203.9802625
4183,4704,0.03215425,-0.0163409,604.0,56.0207195,-227.86183949999997
4184,4705,0.03034825,-0.01636945,604.0,51.14935299999999,-251.74341599999997
4185,4706,0.0292035,-0.016457,604.0,46.277984599999996,-275.625
4186,4707,0.028245250000000003,-0.016244300000000003,604.0,41.406618099999996,-299.5065765
4187,4708,0.028148150000000004,-0.01613115,604.0,36.535251599999995,-323.388153
4188,4709,0.028043699999999998,-0.015595749999999999,604.0,31.6638832,-347.269745
4189,4710,0.028788,-0.0152033,604.0,26.7925167,-371.1513215
4190,4711,0.0291966,-0.01421365,604.0,21.9211502,-395.032898
4191,4712,0.02989325,-0.01339535,604.0,17.049784199999998,-418.9144745
4192,4713,0.03004995,-0.01184405,604.0,12.1784177,-442.796051
4193,4714,0.02910555,-0.0105836,604.0,7.30705118,-466.67762749999997
4194,4715,0.025760850000000002,-0.00716594,604.0,2.43568468,-490.559204
4195,4716,0.043961,-0.009967285,579.314301,90.120285,-60.690788250000004
4196,4717,0.0433863,-0.011862399999999999,579.314301,85.2489166,-84.5723686
4197,4718,0.04200875,-0.01340645,579.314301,80.377552,-108.45394885000002
4198,4719,0.040352,-0.0145694,579.314301,75.50618739999999,-132.335529
4199,4720,0.038527599999999995,-0.01556425,579.314301,70.634819,-156.2171095
4200,4721,0.03656255,-0.016187350000000003,579.314301,65.7634525,-180.098686
4201,4722,0.0348134,-0.01675425,579.314301,60.892086,-203.9802625
4202,4723,0.033016000000000004,-0.01698105,579.314301,56.0207195,-227.86183949999997
4203,4724,0.03168175,-0.0172188,579.314301,51.14935299999999,-251.74341599999997
4204,4725,0.03034025,-0.01711195,579.314301,46.277984599999996,-275.625
4205,4726,0.0296463,-0.017058550000000002,579.314301,41.406618099999996,-299.5065765
4206,4727,0.028872300000000004,-0.016599700000000002,579.314301,36.535251599999995,-323.388153
4207,4728,0.028819050000000002,-0.01621735,579.314301,31.6638832,-347.269745
4208,4729,0.02851645,-0.0153375,579.314301,26.7925167,-371.1513215
4209,4730,0.02869215,-0.014517849999999999,579.314301,21.9211502,-395.032898
4210,4731,0.028532250000000002,-0.01316925,579.314301,17.049784199999998,-418.9144745
4211,4732,0.0280373,-0.0118032,579.314301,12.1784177,-442.796051
4212,4733,0.027358050000000002,-0.009991835000000001,579.314301,7.30705118,-466.67762749999997
4213,4734,0.02426105,-0.008497135,579.314301,2.43568468,-490.559204
4214,4735,0.0405455,-0.009654725,554.6285710000001,90.120285,-60.690788250000004
4215,4736,0.04075495,-0.0118545,554.6285710000001,85.2489166,-84.5723686
4216,4737,0.040375499999999995,-0.013661999999999999,554.6285710000001,80.377552,-108.45394885000002
4217,4738,0.03955435,-0.01514045,554.6285710000001,75.50618739999999,-132.335529
4218,4739,0.0383821,-0.01620945,554.6285710000001,70.634819,-156.2171095
4219,4740,0.03719209999999999,-0.01711975,554.6285710000001,65.7634525,-180.098686
4220,4741,0.0357542,-0.0176335,554.6285710000001,60.892086,-203.9802625
4221,4742,0.0345866,-0.018099650000000002,554.6285710000001,56.0207195,-227.86183949999997
4222,4743,0.0332219,-0.018175900000000002,554.6285710000001,51.14935299999999,-251.74341599999997
4223,4744,0.03232185,-0.0182701,554.6285710000001,46.277984599999996,-275.625
4224,4745,0.031188,-0.01793995,554.6285710000001,41.406618099999996,-299.5065765
4225,4746,0.030618450000000002,-0.017657100000000002,554.6285710000001,36.535251599999995,-323.388153
4226,4747,0.02968395,-0.0168807,554.6285710000001,31.6638832,-347.269745
4227,4748,0.02923335,-0.016131100000000002,554.6285710000001,26.7925167,-371.1513215
4228,4749,0.028276500000000003,-0.0148438,554.6285710000001,21.9211502,-395.032898
4229,4750,0.027378149999999997,-0.013463949999999999,554.6285710000001,17.049784199999998,-418.9144745
4230,4751,0.0259013,-0.0116057,554.6285710000001,12.1784177,-442.796051
4231,4752,0.02337695,-0.00929664,554.6285710000001,7.30705118,-466.67762749999997
4232,4753,0.01999435,-0.0064419149999999994,554.6285710000001,2.43568468,-490.559204
4233,4754,0.032395549999999995,-0.01209875,529.942841,90.120285,-60.690788250000004
4234,4755,0.02975465,-0.01244555,529.942841,85.2489166,-84.5723686
4235,4756,0.027398399999999996,-0.012135650000000001,529.942841,80.377552,-108.45394885000002
4236,4757,0.0259729,-0.0122828,529.942841,75.50618739999999,-132.335529
4237,4758,0.0245046,-0.0121223,529.942841,70.634819,-156.2171095
4238,4759,0.0235545,-0.012177899999999998,529.942841,65.7634525,-180.098686
4239,4760,0.022522,-0.012048300000000001,529.942841,60.892086,-203.9802625
4240,4761,0.0218956,-0.012070800000000001,529.942841,56.0207195,-227.86183949999997
4241,4762,0.021183800000000003,-0.01194405,529.942841,51.14935299999999,-251.74341599999997
4242,4763,0.0208969,-0.011968050000000001,529.942841,46.277984599999996,-275.625
4243,4764,0.0204811,-0.011814700000000001,529.942841,41.406618099999996,-299.5065765
4244,4765,0.0206036,-0.0118565,529.942841,36.535251599999995,-323.388153
4245,4766,0.02049455,-0.01161885,529.942841,31.6638832,-347.269745
4246,4767,0.021224,-0.011712650000000002,529.942841,26.7925167,-371.1513215
4247,4768,0.0216271,-0.01129835,529.942841,21.9211502,-395.032898
4248,4769,0.023652450000000002,-0.011624349999999999,529.942841,17.049784199999998,-418.9144745
4249,4770,0.025652599999999998,-0.010865099999999999,529.942841,12.1784177,-442.796051
4250,4771,0.0313343,-0.01235935,529.942841,7.30705118,-466.67762749999997
4251,4772,0.04462125,-0.009860875,529.942841,2.43568468,-490.559204
4252,4773,0.03357045,-0.01324765,505.25712599999997,90.120285,-60.690788250000004
4253,4774,0.030980849999999997,-0.0131041,505.25712599999997,85.2489166,-84.5723686
4254,4775,0.028797649999999998,-0.013170399999999999,505.25712599999997,80.377552,-108.45394885000002
4255,4776,0.027123549999999996,-0.01299555,505.25712599999997,75.50618739999999,-132.335529
4256,4777,0.025858449999999998,-0.01300565,505.25712599999997,70.634819,-156.2171095
4257,4778,0.024672649999999997,-0.0128577,505.25712599999997,65.7634525,-180.098686
4258,4779,0.0238434,-0.012850049999999998,505.25712599999997,60.892086,-203.9802625
4259,4780,0.023005050000000003,-0.01272755,505.25712599999997,56.0207195,-227.86183949999997
4260,4781,0.0225427,-0.0127372,505.25712599999997,51.14935299999999,-251.74341599999997
4261,4782,0.0220365,-0.0126307,505.25712599999997,46.277984599999996,-275.625
4262,4783,0.021964949999999997,-0.01267205,505.25712599999997,41.406618099999996,-299.5065765
4263,4784,0.0218006,-0.012550350000000002,505.25712599999997,36.535251599999995,-323.388153
4264,4785,0.02217155,-0.012622749999999999,505.25712599999997,31.6638832,-347.269745
4265,4786,0.022446300000000002,-0.01242775,505.25712599999997,26.7925167,-371.1513215
4266,4787,0.023440250000000003,-0.012530349999999999,505.25712599999997,21.9211502,-395.032898
4267,4788,0.024814700000000002,-0.0121908,505.25712599999997,17.049784199999998,-418.9144745
4268,4789,0.02686905,-0.0121994,505.25712599999997,12.1784177,-442.796051
4269,4790,0.0333045,-0.0116431,505.25712599999997,7.30705118,-466.67762749999997
4270,4791,0.03402935,-0.00507175,505.25712599999997,2.43568468,-490.559204
4271,4792,0.0344198,-0.0132677,480.5714264999999,90.120285,-60.690788250000004
4272,4793,0.03141865,-0.01350705,480.5714264999999,85.2489166,-84.5723686
4273,4794,0.0298335,-0.0136843,480.5714264999999,80.377552,-108.45394885000002
4274,4795,0.0281752,-0.0136919,480.5714264999999,75.50618739999999,-132.335529
4275,4796,0.02691525,-0.01360805,480.5714264999999,70.634819,-156.2171095
4276,4797,0.02582505,-0.013560800000000001,480.5714264999999,65.7634525,-180.098686
4277,4798,0.0248651,-0.0134481,480.5714264999999,60.892086,-203.9802625
4278,4799,0.02418335,-0.013420350000000001,480.5714264999999,56.0207195,-227.86183949999997
4279,4800,0.023562100000000002,-0.013336,480.5714264999999,51.14935299999999,-251.74341599999997
4280,4801,0.02328375,-0.013351749999999999,480.5714264999999,46.277984599999996,-275.625
4281,4802,0.023040200000000004,-0.0132961,480.5714264999999,41.406618099999996,-299.5065765
4282,4803,0.02314775,-0.01333585,480.5714264999999,36.535251599999995,-323.388153
4283,4804,0.02331135,-0.01326605,480.5714264999999,31.6638832,-347.269745
4284,4805,0.023725,-0.0132392,480.5714264999999,26.7925167,-371.1513215
4285,4806,0.0245095,-0.01305665,480.5714264999999,21.9211502,-395.032898
4286,4807,0.025033399999999997,-0.012602099999999998,480.5714264999999,17.049784199999998,-418.9144745
4287,4808,0.02766395,-0.0120742,480.5714264999999,12.1784177,-442.796051
4288,4809,0.02735325,-0.00856374,480.5714264999999,7.30705118,-466.67762749999997
4289,4810,0.027892550000000002,-0.00487918,480.5714264999999,2.43568468,-490.559204
4290,4811,0.03278185,-0.012293450000000001,455.88571199999996,90.120285,-60.690788250000004
4291,4812,0.03177,-0.01356645,455.88571199999996,85.2489166,-84.5723686
4292,4813,0.030078,-0.013873450000000002,455.88571199999996,80.377552,-108.45394885000002
4293,4814,0.02899255,-0.0140982,455.88571199999996,75.50618739999999,-132.335529
4294,4815,0.02770305,-0.01408365,455.88571199999996,70.634819,-156.2171095
4295,4816,0.02669985,-0.014048000000000001,455.88571199999996,65.7634525,-180.098686
4296,4817,0.0257876,-0.013988549999999999,455.88571199999996,60.892086,-203.9802625
4297,4818,0.025046899999999997,-0.01392535,455.88571199999996,56.0207195,-227.86183949999997
4298,4819,0.02453985,-0.013903099999999998,455.88571199999996,51.14935299999999,-251.74341599999997
4299,4820,0.024176700000000002,-0.01387685,455.88571199999996,46.277984599999996,-275.625
4300,4821,0.02405915,-0.0138843,455.88571199999996,41.406618099999996,-299.5065765
4301,4822,0.02411,-0.01388145,455.88571199999996,36.535251599999995,-323.388153
4302,4823,0.024226949999999997,-0.013815150000000002,455.88571199999996,31.6638832,-347.269745
4303,4824,0.024674500000000002,-0.0137316,455.88571199999996,26.7925167,-371.1513215
4304,4825,0.0246148,-0.013248099999999999,455.88571199999996,21.9211502,-395.032898
4305,4826,0.0255415,-0.0127718,455.88571199999996,17.049784199999998,-418.9144745
4306,4827,0.024519,-0.010650799999999998,455.88571199999996,12.1784177,-442.796051
4307,4828,0.0244971,-0.008414669999999999,455.88571199999996,7.30705118,-466.67762749999997
4308,4829,0.023967099999999998,-0.004565135,455.88571199999996,2.43568468,-490.559204
4309,4830,0.03131845,-0.011833699999999999,431.199997,90.120285,-60.690788250000004
4310,4831,0.030863,-0.0131099,431.199997,85.2489166,-84.5723686
4311,4832,0.0303142,-0.0139705,431.199997,80.377552,-108.45394885000002
4312,4833,0.0291709,-0.01420275,431.199997,75.50618739999999,-132.335529
4313,4834,0.02830635,-0.0143889,431.199997,70.634819,-156.2171095
4314,4835,0.027253549999999998,-0.014361249999999999,431.199997,65.7634525,-180.098686
4315,4836,0.02644775,-0.01436215,431.199997,60.892086,-203.9802625
4316,4837,0.02572275,-0.01431495,431.199997,56.0207195,-227.86183949999997
4317,4838,0.0252234,-0.014308500000000002,431.199997,51.14935299999999,-251.74341599999997
4318,4839,0.02488585,-0.01428585,431.199997,46.277984599999996,-275.625
4319,4840,0.0247965,-0.014310400000000001,431.199997,41.406618099999996,-299.5065765
4320,4841,0.02473425,-0.014241900000000002,431.199997,36.535251599999995,-323.388153
4321,4842,0.0250098,-0.0142334,431.199997,31.6638832,-347.269745
4322,4843,0.024821450000000002,-0.013860850000000001,431.199997,26.7925167,-371.1513215
4323,4844,0.025179,-0.013547600000000002,431.199997,21.9211502,-395.032898
4324,4845,0.024072,-0.01218115,431.199997,17.049784199999998,-418.9144745
4325,4846,0.0235001,-0.01074145,431.199997,12.1784177,-442.796051
4326,4847,0.0217128,-0.007873405,431.199997,7.30705118,-466.67762749999997
4327,4848,0.02034275,-0.0047599800000000005,431.199997,2.43568468,-490.559204
4328,4849,0.02979375,-0.0114314,406.514282,90.120285,-60.690788250000004
4329,4850,0.030137749999999998,-0.0129324,406.514282,85.2489166,-84.5723686
4330,4851,0.02980145,-0.013719649999999998,406.514282,80.377552,-108.45394885000002
4331,4852,0.0293347,-0.01428635,406.514282,75.50618739999999,-132.335529
4332,4853,0.028392050000000002,-0.01442165,406.514282,70.634819,-156.2171095
4333,4854,0.027644699999999998,-0.01457055,406.514282,65.7634525,-180.098686
4334,4855,0.026788,-0.014550299999999999,406.514282,60.892086,-203.9802625
4335,4856,0.026188350000000003,-0.0145899,406.514282,56.0207195,-227.86183949999997
4336,4857,0.02564965,-0.0145536,406.514282,51.14935299999999,-251.74341599999997
4337,4858,0.025400900000000004,-0.01459075,406.514282,46.277984599999996,-275.625
4338,4859,0.0251728,-0.014524249999999999,406.514282,41.406618099999996,-299.5065765
4339,4860,0.025297999999999998,-0.01455145,406.514282,36.535251599999995,-323.388153
4340,4861,0.025114949999999997,-0.014298150000000003,406.514282,31.6638832,-347.269745
4341,4862,0.0253636,-0.01415555,406.514282,26.7925167,-371.1513215
4342,4863,0.02455205,-0.013294499999999999,406.514282,21.9211502,-395.032898
4343,4864,0.02401925,-0.01243965,406.514282,17.049784199999998,-418.9144745
4344,4865,0.02193255,-0.0104198,406.514282,12.1784177,-442.796051
4345,4866,0.019746149999999997,-0.008119439999999999,406.514282,7.30705118,-466.67762749999997
4346,4867,0.01753285,-0.004903855,406.514282,2.43568468,-490.559204
4347,4868,0.0283765,-0.011245600000000001,381.82856749999996,90.120285,-60.690788250000004
4348,4869,0.029177549999999997,-0.01264405,381.82856749999996,85.2489166,-84.5723686
4349,4870,0.029407299999999997,-0.0136322,381.82856749999996,80.377552,-108.45394885000002
4350,4871,0.0289462,-0.014074350000000001,381.82856749999996,75.50618739999999,-132.335529
4351,4872,0.028429549999999998,-0.014456100000000001,381.82856749999996,70.634819,-156.2171095
4352,4873,0.027626,-0.01455165,381.82856749999996,65.7634525,-180.098686
4353,4874,0.02702165,-0.01469295,381.82856749999996,60.892086,-203.9802625
4354,4875,0.0263597,-0.014686749999999998,381.82856749999996,56.0207195,-227.86183949999997
4355,4876,0.02598035,-0.014754300000000001,381.82856749999996,51.14935299999999,-251.74341599999997
4356,4877,0.02558895,-0.0146967,381.82856749999996,46.277984599999996,-275.625
4357,4878,0.02554075,-0.0147339,381.82856749999996,41.406618099999996,-299.5065765
4358,4879,0.0253137,-0.0145559,381.82856749999996,36.535251599999995,-323.388153
4359,4880,0.025483850000000002,-0.014499850000000002,381.82856749999996,31.6638832,-347.269745
4360,4881,0.025012399999999997,-0.01397785,381.82856749999996,26.7925167,-371.1513215
4361,4882,0.024832099999999996,-0.0135625,381.82856749999996,21.9211502,-395.032898
4362,4883,0.023278300000000002,-0.012262450000000001,381.82856749999996,17.049784199999998,-418.9144745
4363,4884,0.0214403,-0.010801350000000001,381.82856749999996,12.1784177,-442.796051
4364,4885,0.01825015,-0.00828333,381.82856749999996,7.30705118,-466.67762749999997
4365,4886,0.01480625,-0.00523898,381.82856749999996,2.43568468,-490.559204
4366,4887,0.027058350000000002,-0.011120999999999999,357.142853,90.120285,-60.690788250000004
4367,4888,0.028357800000000002,-0.012540800000000001,357.142853,85.2489166,-84.5723686
4368,4889,0.028655149999999997,-0.01331655,357.142853,80.377552,-108.45394885000002
4369,4890,0.0285597,-0.01396305,357.142853,75.50618739999999,-132.335529
4370,4891,0.028061550000000005,-0.01426875,357.142853,70.634819,-156.2171095
4371,4892,0.027595050000000003,-0.0145737,357.142853,65.7634525,-180.098686
4372,4893,0.0269646,-0.01466835,357.142853,60.892086,-203.9802625
4373,4894,0.0265473,-0.014812200000000001,357.142853,56.0207195,-227.86183949999997
4374,4895,0.026052850000000002,-0.014795099999999999,357.142853,51.14935299999999,-251.74341599999997
4375,4896,0.02585355,-0.014852299999999999,357.142853,46.277984599999996,-275.625
4376,4897,0.0255217,-0.014719050000000001,357.142853,41.406618099999996,-299.5065765
4377,4898,0.0255382,-0.014684850000000001,357.142853,36.535251599999995,-323.388153
4378,4899,0.025191850000000002,-0.0143387,357.142853,31.6638832,-347.269745
4379,4900,0.02515485,-0.014108850000000001,357.142853,26.7925167,-371.1513215
4380,4901,0.02431875,-0.013337850000000002,357.142853,21.9211502,-395.032898
4381,4902,0.023444899999999998,-0.012634900000000001,357.142853,17.049784199999998,-418.9144745
4382,4903,0.02091515,-0.010951599999999999,357.142853,12.1784177,-442.796051
4383,4904,0.01744395,-0.008801435,357.142853,7.30705118,-466.67762749999997
4384,4905,0.012845500000000001,-0.00562636,357.142853,2.43568468,-490.559204
4385,4906,0.02598035,-0.01114805,332.457138,90.120285,-60.690788250000004
4386,4907,0.0273034,-0.012210099999999998,332.457138,85.2489166,-84.5723686
4387,4908,0.02782365,-0.013111499999999998,332.457138,80.377552,-108.45394885000002
4388,4909,0.027877649999999997,-0.013687749999999999,332.457138,75.50618739999999,-132.335529
4389,4910,0.027723650000000002,-0.014200700000000002,332.457138,70.634819,-156.2171095
4390,4911,0.027338350000000004,-0.01447845,332.457138,65.7634525,-180.098686
4391,4912,0.02703125,-0.0147569,332.457138,60.892086,-203.9802625
4392,4913,0.0265708,-0.01483815,332.457138,56.0207195,-227.86183949999997
4393,4914,0.0263186,-0.01495795,332.457138,51.14935299999999,-251.74341599999997
4394,4915,0.025907149999999997,-0.014878800000000001,332.457138,46.277984599999996,-275.625
4395,4916,0.0257676,-0.014862249999999999,332.457138,41.406618099999996,-299.5065765
4396,4917,0.025370999999999998,-0.014596450000000002,332.457138,36.535251599999995,-323.388153
4397,4918,0.025243549999999997,-0.01440775,332.457138,31.6638832,-347.269745
4398,4919,0.024672799999999998,-0.0138765,332.457138,26.7925167,-371.1513215
4399,4920,0.024190049999999998,-0.013416900000000002,332.457138,21.9211502,-395.032898
4400,4921,0.0229459,-0.012470849999999999,332.457138,17.049784199999998,-418.9144745
4401,4922,0.021256900000000002,-0.011547,332.457138,12.1784177,-442.796051
4402,4923,0.0172331,-0.00933539,332.457138,7.30705118,-466.67762749999997
4403,4924,0.011293149999999998,-0.006008815,332.457138,2.43568468,-490.559204
4404,4925,0.02460355,-0.0107825,307.771423,90.120285,-60.690788250000004
4405,4926,0.0259432,-0.0119106,307.771423,85.2489166,-84.5723686
4406,4927,0.026832099999999998,-0.0128207,307.771423,80.377552,-108.45394885000002
4407,4928,0.02720715,-0.01357525,307.771423,75.50618739999999,-132.335529
4408,4929,0.027307899999999996,-0.01411455,307.771423,70.634819,-156.2171095
4409,4930,0.0273004,-0.014583599999999999,307.771423,65.7634525,-180.098686
4410,4931,0.027065,-0.0148334,307.771423,60.892086,-203.9802625
4411,4932,0.0269164,-0.015073199999999998,307.771423,56.0207195,-227.86183949999997
4412,4933,0.026543700000000003,-0.015090949999999999,307.771423,51.14935299999999,-251.74341599999997
4413,4934,0.0263498,-0.015133299999999999,307.771423,46.277984599999996,-275.625
4414,4935,0.025888349999999997,-0.01493195,307.771423,41.406618099999996,-299.5065765
4415,4936,0.025625099999999998,-0.014767249999999999,307.771423,36.535251599999995,-323.388153
4416,4937,0.02501445,-0.0143229,307.771423,31.6638832,-347.269745
4417,4938,0.0245014,-0.01389785,307.771423,26.7925167,-371.1513215
4418,4939,0.023575449999999998,-0.013180149999999998,307.771423,21.9211502,-395.032898
4419,4940,0.0223983,-0.01242145,307.771423,17.049784199999998,-418.9144745
4420,4941,0.0207409,-0.0113875,307.771423,12.1784177,-442.796051
4421,4942,0.0181005,-0.010214530000000001,307.771423,7.30705118,-466.67762749999997
4422,4943,0.011889150000000001,-0.006828275,307.771423,2.43568468,-490.559204
4423,4944,0.0224651,-0.010259750000000002,283.0857085,90.120285,-60.690788250000004
4424,4945,0.024638,-0.011666349999999999,283.0857085,85.2489166,-84.5723686
4425,4946,0.0258531,-0.0127142,283.0857085,80.377552,-108.45394885000002
4426,4947,0.0267084,-0.01359785,283.0857085,75.50618739999999,-132.335529
4427,4948,0.027223949999999997,-0.014308650000000001,283.0857085,70.634819,-156.2171095
4428,4949,0.02741515,-0.014791450000000001,283.0857085,65.7634525,-180.098686
4429,4950,0.027546750000000002,-0.015203499999999998,283.0857085,60.892086,-203.9802625
4430,4951,0.02737115,-0.01537085,283.0857085,56.0207195,-227.86183949999997
4431,4952,0.0272785,-0.0155265,283.0857085,51.14935299999999,-251.74341599999997
4432,4953,0.0268604,-0.01542195,283.0857085,46.277984599999996,-275.625
4433,4954,0.026575800000000004,-0.015329200000000001,283.0857085,41.406618099999996,-299.5065765
4434,4955,0.025911999999999998,-0.01495235,283.0857085,36.535251599999995,-323.388153
4435,4956,0.02532935,-0.0145708,283.0857085,31.6638832,-347.269745
4436,4957,0.02432175,-0.013902500000000002,283.0857085,26.7925167,-371.1513215
4437,4958,0.0231637,-0.013147700000000002,283.0857085,21.9211502,-395.032898
4438,4959,0.02165705,-0.012205649999999998,283.0857085,17.049784199999998,-418.9144745
4439,4960,0.01937475,-0.01093885,283.0857085,12.1784177,-442.796051
4440,4961,0.0174249,-0.009926265,283.0857085,7.30705118,-466.67762749999997
4441,4962,0.01377455,-0.007333865,283.0857085,2.43568468,-490.559204
4442,4963,0.0208565,-0.011711450000000002,258.40000150000003,90.120285,-60.690788250000004
4443,4964,0.02133665,-0.0120765,258.40000150000003,85.2489166,-84.5723686
4444,4965,0.0209466,-0.011878,258.40000150000003,80.377552,-108.45394885000002
4445,4966,0.020965300000000003,-0.011936549999999999,258.40000150000003,75.50618739999999,-132.335529
4446,4967,0.0207536,-0.011848150000000002,258.40000150000003,70.634819,-156.2171095
4447,4968,0.020728500000000004,-0.01186925,258.40000150000003,65.7634525,-180.098686
4448,4969,0.020622,-0.011835749999999999,258.40000150000003,60.892086,-203.9802625
4449,4970,0.02060505,-0.011849600000000002,258.40000150000003,56.0207195,-227.86183949999997
4450,4971,0.0205418,-0.011831149999999999,258.40000150000003,51.14935299999999,-251.74341599999997
4451,4972,0.0205596,-0.01185375,258.40000150000003,46.277984599999996,-275.625
4452,4973,0.02050345,-0.0118284,258.40000150000003,41.406618099999996,-299.5065765
4453,4974,0.020602050000000004,-0.0118867,258.40000150000003,36.535251599999995,-323.388153
4454,4975,0.0205046,-0.011825800000000001,258.40000150000003,31.6638832,-347.269745
4455,4976,0.02079925,-0.011989199999999998,258.40000150000003,26.7925167,-371.1513215
4456,4977,0.02051485,-0.011806899999999999,258.40000150000003,21.9211502,-395.032898
4457,4978,0.021134649999999998,-0.0121614,258.40000150000003,17.049784199999998,-418.9144745
4458,4979,0.019683600000000002,-0.011252350000000001,258.40000150000003,12.1784177,-442.796051
4459,4980,0.01994015,-0.011242100000000001,258.40000150000003,7.30705118,-466.67762749999997
4460,4981,0.020279949999999998,-0.00765429,258.40000150000003,2.43568468,-490.559204
4461,4982,0.0218726,-0.01236225,233.71428650000001,90.120285,-60.690788250000004
4462,4983,0.021476000000000002,-0.0121269,233.71428650000001,85.2489166,-84.5723686
4463,4984,0.021303549999999997,-0.012100300000000001,233.71428650000001,80.377552,-108.45394885000002
4464,4985,0.02112105,-0.01202285,233.71428650000001,75.50618739999999,-132.335529
4465,4986,0.021055950000000004,-0.0120328,233.71428650000001,70.634819,-156.2171095
4466,4987,0.0209664,-0.01201145,233.71428650000001,65.7634525,-180.098686
4467,4988,0.020924449999999997,-0.01201785,233.71428650000001,60.892086,-203.9802625
4468,4989,0.020869350000000002,-0.012008950000000001,233.71428650000001,56.0207195,-227.86183949999997
4469,4990,0.02084945,-0.012015350000000001,233.71428650000001,51.14935299999999,-251.74341599999997
4470,4991,0.02081375,-0.012007650000000002,233.71428650000001,46.277984599999996,-275.625
4471,4992,0.02082655,-0.01202145,233.71428650000001,41.406618099999996,-299.5065765
4472,4993,0.02079705,-0.012005749999999999,233.71428650000001,36.535251599999995,-323.388153
4473,4994,0.0208701,-0.012045050000000002,233.71428650000001,31.6638832,-347.269745
4474,4995,0.02083875,-0.0120125,233.71428650000001,26.7925167,-371.1513215
4475,4996,0.0211026,-0.0121622,233.71428650000001,21.9211502,-395.032898
4476,4997,0.0211758,-0.01216165,233.71428650000001,17.049784199999998,-418.9144745
4477,4998,0.0218249,-0.01256395,233.71428650000001,12.1784177,-442.796051
4478,4999,0.020501600000000002,-0.01155335,233.71428650000001,7.30705118,-466.67762749999997
4479,5000,0.012122899999999999,-0.0056635999999999995,233.71428650000001,2.43568468,-490.559204
4480,5001,0.0219964,-0.01232985,209.028572,90.120285,-60.690788250000004
4481,5002,0.0214732,-0.01214765,209.028572,85.2489166,-84.5723686
4482,5003,0.0214846,-0.01218285,209.028572,80.377552,-108.45394885000002
4483,5004,0.021303000000000002,-0.01213955,209.028572,75.50618739999999,-132.335529
4484,5005,0.021298499999999998,-0.012169300000000001,209.028572,70.634819,-156.2171095
4485,5006,0.0212173,-0.012160299999999999,209.028572,65.7634525,-180.098686
4486,5007,0.021193699999999996,-0.012173650000000001,209.028572,60.892086,-203.9802625
4487,5008,0.021143250000000002,-0.0121682,209.028572,56.0207195,-227.86183949999997
4488,5009,0.02112505,-0.0121755,209.028572,51.14935299999999,-251.74341599999997
4489,5010,0.021089049999999998,-0.01216655,209.028572,46.277984599999996,-275.625
4490,5011,0.0210935,-0.0121764,209.028572,41.406618099999996,-299.5065765
4491,5012,0.0210513,-0.0121533,209.028572,36.535251599999995,-323.388153
4492,5013,0.02110575,-0.012179249999999999,209.028572,31.6638832,-347.269745
4493,5014,0.021023100000000003,-0.012126,209.028572,26.7925167,-371.1513215
4494,5015,0.021266149999999998,-0.01223685,209.028572,21.9211502,-395.032898
4495,5016,0.02115885,-0.01217455,209.028572,17.049784199999998,-418.9144745
4496,5017,0.0219532,-0.0125252,209.028572,12.1784177,-442.796051
4497,5018,0.019359849999999998,-0.011097450000000002,209.028572,7.30705118,-466.67762749999997
4498,5019,0.010040865,-0.00576359,209.028572,2.43568468,-490.559204
4499,5020,0.020669649999999998,-0.01162615,184.34285749999998,90.120285,-60.690788250000004
4500,5021,0.02164935,-0.012228949999999999,184.34285749999998,85.248918525,-84.5723686
4501,5022,0.021429950000000003,-0.01216505,184.34285749999998,80.377553925,-108.45394885000002
4502,5023,0.02161305,-0.012310950000000001,184.34285749999998,75.50618739999999,-132.335529
4503,5024,0.0214768,-0.0122734,184.34285749999998,70.634819,-156.2171095
4504,5025,0.0215111,-0.012324950000000001,184.34285749999998,65.7634525,-180.098686
4505,5026,0.0214342,-0.01230885,184.34285749999998,60.892086,-203.9802625
4506,5027,0.02143445,-0.01233155,184.34285749999998,56.0207195,-227.86183949999997
4507,5028,0.02137705,-0.0123155,184.34285749999998,51.14935299999999,-251.74341599999997
4508,5029,0.02138925,-0.0123348,184.34285749999998,46.277984599999996,-275.625
4509,5030,0.0213173,-0.0122997,184.34285749999998,41.406618099999996,-299.5065765
4510,5031,0.021383100000000002,-0.012339100000000002,184.34285749999998,36.535251599999995,-323.388153
4511,5032,0.0212269,-0.0122454,184.34285749999998,31.663883674999997,-347.269745
4512,5033,0.0214351,-0.0123543,184.34285749999998,26.792517175,-371.1513215
4513,5034,0.020975149999999998,-0.01207735,184.34285749999998,21.921150675,-395.032898
4514,5035,0.02141055,-0.01229405,184.34285749999998,17.049784199999998,-418.9144745
4515,5036,0.0193641,-0.01110565,184.34285749999998,12.178417465,-442.796051
4516,5037,0.018559099999999995,-0.010676149999999999,184.34285749999998,7.307050825000001,-466.67762749999997
4517,5038,0.014727750000000001,-0.006891895,184.34285749999998,2.4356840823667216,-490.559204
4518,5039,0.000575673,-0.000311446,159.714287,-2.4356840876332786,-490.559204
4519,5040,0.000593471,-0.000333209,159.714287,-7.307050825,-466.67762749999997
4520,5041,0.00058563,-0.000329634,159.714287,-12.178417465,-442.796051
4521,5042,0.000599341,-0.000335454,159.714287,-17.049784199999998,-418.9144745
4522,5043,0.000600506,-0.00033361649999999997,159.714287,-21.921150675,-395.032898
4523,5044,0.000610991,-0.000336029,159.714287,-26.792517174999997,-371.1513215
4524,5045,0.0006174995,-0.000335743,159.714287,-31.663883674999997,-347.26974500000006
4525,5046,0.0006282925,-0.000337108,159.714287,-36.535251599999995,-323.388153
4526,5047,0.00063864,-0.00033774299999999994,159.714287,-41.406618099999996,-299.5065765
4527,5048,0.0006516250000000001,-0.0003392915,159.714287,-46.277984599999996,-275.625
4528,5049,0.0006647705,-0.00034056449999999997,159.714287,-51.14935299999999,-251.743416
4529,5050,0.0006799795,-0.00034260599999999997,159.714287,-56.0207195,-227.86183949999997
4530,5051,0.0006945160000000001,-0.00034398349999999997,159.714287,-60.89208599999999,-203.98026249999998
4531,5052,0.0007104570000000001,-0.00034570650000000005,159.714287,-65.7634525,-180.09868600000001
4532,5053,0.0007233705,-0.0003445344999999999,159.714287,-70.634819,-156.2171095
4533,5054,0.0007381754999999999,-0.000342832,159.714287,-75.50618739999999,-132.335529
4534,5055,0.0007473855000000001,-0.00032986150000000004,159.714287,-80.377553925,-108.45394885000002
4535,5056,0.0007760585,-0.000321343,159.714287,-85.24891852500001,-84.5723686
4536,5057,0.0008229095000000001,-0.00027704650000000004,159.714287,-90.120285,-60.69078825
4537,5058,0.0006298105,-0.000362383,135.142857,-2.43568468,-490.559204
4538,5059,0.0006021475,-0.000343796,135.142857,-7.307051179999999,-466.67762749999997
4539,5060,0.0006106555,-0.0003471905,135.142857,-12.1784177,-442.796051
4540,5061,0.0006092375000000001,-0.000344575,135.142857,-17.049784199999998,-418.9144745
4541,5062,0.000618251,-0.000346493,135.142857,-21.9211502,-395.032898
4542,5063,0.0006231195000000001,-0.00034603,135.142857,-26.7925167,-371.1513215
4543,5064,0.000632141,-0.000346771,135.142857,-31.6638832,-347.26974500000006
4544,5065,0.0006411585,-0.0003471415,135.142857,-36.535251599999995,-323.388153
4545,5066,0.0006525540000000001,-0.000348095,135.142857,-41.406618099999996,-299.5065765
4546,5067,0.000664672,-0.00034902,135.142857,-46.277984599999996,-275.625
4547,5068,0.000678839,-0.000350659,135.142857,-51.14935299999999,-251.743416
4548,5069,0.0006936290000000001,-0.0003523145,135.142857,-56.0207195,-227.86183949999997
4549,5070,0.0007101789999999999,-0.00035487600000000006,135.142857,-60.89208599999999,-203.98026249999998
4550,5071,0.0007271935000000001,-0.00035733049999999995,135.142857,-65.7634525,-180.09868600000001
4551,5072,0.000744225,-0.000360085,135.142857,-70.634819,-156.2171095
4552,5073,0.000763666,-0.000361557,135.142857,-75.50618739999999,-132.335529
4553,5074,0.000777088,-0.0003594435,135.142857,-80.377552,-108.45394885000002
4554,5075,0.0008090045000000001,-0.000349167,135.142857,-85.2489166,-84.5723686
4555,5076,0.0008302195,-0.0003261045,135.142857,-90.120285,-60.69078825
4556,5077,0.0006029775,-0.000347452,110.5714266,-2.43568468,-490.559204
4557,5078,0.0006346645,-0.0003655565,110.5714266,-7.307051179999999,-466.67762749999997
4558,5079,0.000622303,-0.0003562255,110.5714266,-12.1784177,-442.796051
4559,5080,0.000630079,-0.00035813450000000003,110.5714266,-17.049784199999998,-418.9144745
4560,5081,0.000632601,-0.00035696899999999995,110.5714266,-21.9211502,-395.032898
4561,5082,0.0006384945,-0.00035651599999999997,110.5714266,-26.7925167,-371.1513215
4562,5083,0.0006463045000000001,-0.00035680550000000003,110.5714266,-31.6638832,-347.26974500000006
4563,5084,0.0006552015000000001,-0.00035682849999999996,110.5714266,-36.535251599999995,-323.388153
4564,5085,0.0006659505,-0.000357408,110.5714266,-41.406618099999996,-299.5065765
4565,5086,0.000678065,-0.000358184,110.5714266,-46.277984599999996,-275.625
4566,5087,0.0006917625,-0.0003593315,110.5714266,-51.14935299999999,-251.743416
4567,5088,0.0007071635000000001,-0.0003612235,110.5714266,-56.0207195,-227.86183949999997
4568,5089,0.000724796,-0.00036392900000000003,110.5714266,-60.89208599999999,-203.98026249999998
4569,5090,0.0007433015,-0.000367433,110.5714266,-65.7634525,-180.09868600000001
4570,5091,0.00076723,-0.000373293,110.5714266,-70.634819,-156.2171095
4571,5092,0.0007844695,-0.000375962,110.5714266,-75.50618739999999,-132.335529
4572,5093,0.000818002,-0.00038336049999999997,110.5714266,-80.377552,-108.45394885000002
4573,5094,0.0008086835,-0.00036326749999999997,110.5714266,-85.2489166,-84.5723686
4574,5095,0.0008586225,-0.000341907,110.5714266,-90.120285,-60.69078825
4575,5096,0.0006490064999999999,-0.0003745635,86.0,-2.43568468,-490.559204
4576,5097,0.0006263734999999999,-0.00036074450000000004,86.0,-7.307051179999999,-466.67762749999997
4577,5098,0.000649637,-0.000372706,86.0,-12.1784177,-442.796051
4578,5099,0.000645623,-0.0003682175,86.0,-17.049784199999998,-418.9144745
4579,5100,0.0006488355,-0.0003671065,86.0,-21.9211502,-395.032898
4580,5101,0.0006550919999999999,-0.0003670735,86.0,-26.7925167,-371.1513215
4581,5102,0.00066108,-0.00036616350000000003,86.0,-31.6638832,-347.26974500000006
4582,5103,0.0006703429999999999,-0.0003664865,86.0,-36.535251599999995,-323.388153
4583,5104,0.000679784,-0.0003662985,86.0,-41.406618099999996,-299.5065765
4584,5105,0.0006915014999999999,-0.0003667335,86.0,-46.277984599999996,-275.625
4585,5106,0.0007041365,-0.000367276,86.0,-51.14935299999999,-251.743416
4586,5107,0.000719344,-0.0003685545,86.0,-56.0207195,-227.86183949999997
4587,5108,0.0007355554999999999,-0.0003702885,86.0,-60.89208599999999,-203.98026249999998
4588,5109,0.000756783,-0.000374158,86.0,-65.7634525,-180.09868600000001
4589,5110,0.0007756729999999999,-0.00037673199999999996,86.0,-70.634819,-156.2171095
4590,5111,0.000805628,-0.00038503150000000004,86.0,-75.50618739999999,-132.335529
4591,5112,0.0008122025,-0.0003778285,86.0,-80.377552,-108.45394885000002
4592,5113,0.0008370235000000001,-0.0003799665,86.0,-85.2489166,-84.5723686
4593,5114,0.0007494825,-0.000294068,86.0,-90.120285,-60.69078825
4594,5115,0.0006363320000000001,-0.00036701750000000003,61.428571700000006,-2.43568468,-490.559204
4595,5116,0.000672554,-0.00038710000000000003,61.428571700000006,-7.307051179999999,-466.67762749999997
4596,5117,0.000658037,-0.000377361,61.428571700000006,-12.1784177,-442.796051
4597,5118,0.000663419,-0.000378386,61.428571700000006,-17.049784199999998,-418.9144745
4598,5119,0.000666607,-0.00037721200000000003,61.428571700000006,-21.9211502,-395.032898
4599,5120,0.0006709344999999999,-0.0003762635,61.428571700000006,-26.7925167,-371.1513215
4600,5121,0.0006783984999999999,-0.00037622899999999995,61.428571700000006,-31.6638832,-347.26974500000006
4601,5122,0.000685466,-0.000375486,61.428571700000006,-36.535251599999995,-323.388153
4602,5123,0.0006950405,-0.0003753865,61.428571700000006,-41.406618099999996,-299.5065765
4603,5124,0.0007046775,-0.000374834,61.428571700000006,-46.277984599999996,-275.625
4604,5125,0.0007165955,-0.00037475050000000004,61.428571700000006,-51.14935299999999,-251.743416
4605,5126,0.00072865,-0.00037433,61.428571700000006,-56.0207195,-227.86183949999997
4606,5127,0.0007441565,-0.000374883,61.428571700000006,-60.89208599999999,-203.98026249999998
4607,5128,0.000758609,-0.00037435599999999995,61.428571700000006,-65.7634525,-180.09868600000001
4608,5129,0.000779068,-0.000376483,61.428571700000006,-70.634819,-156.2171095
4609,5130,0.000791356,-0.0003720695,61.428571700000006,-75.50618739999999,-132.335529
4610,5131,0.00080757,-0.0003727305,61.428571700000006,-80.377552,-108.45394885000002
4611,5132,0.000784008,-0.0003405805,61.428571700000006,-85.2489166,-84.5723686
4612,5133,0.0007078125,-0.000304818,61.428571700000006,-90.120285,-60.69078825
4613,5134,0.0007105804999999999,-0.0004075295,36.857142450000005,-2.43568468,-490.559204
4614,5135,0.000673894,-0.0003856635,36.857142450000005,-7.307051179999999,-466.67762749999997
4615,5136,0.0006794895,-0.0003882775,36.857142450000005,-12.1784177,-442.796051
4616,5137,0.000678438,-0.00038572599999999997,36.857142450000005,-17.049784199999998,-418.9144745
4617,5138,0.0006848815,-0.0003868675,36.857142450000005,-21.9211502,-395.032898
4618,5139,0.000689544,-0.000386057,36.857142450000005,-26.7925167,-371.1513215
4619,5140,0.0006957005,-0.00038571699999999994,36.857142450000005,-31.6638832,-347.26974500000006
4620,5141,0.000703054,-0.0003851905,36.857142450000005,-36.535251599999995,-323.388153
4621,5142,0.0007105745,-0.000384285,36.857142450000005,-41.406618099999996,-299.5065765
4622,5143,0.0007196934999999999,-0.0003835125,36.857142450000005,-46.277984599999996,-275.625
4623,5144,0.0007283195,-0.00038191799999999997,36.857142450000005,-51.14935299999999,-251.743416
4624,5145,0.0007389390000000001,-0.0003805655,36.857142450000005,-56.0207195,-227.86183949999997
4625,5146,0.00074771,-0.000377501,36.857142450000005,-60.89208599999999,-203.98026249999998
4626,5147,0.00075888,-0.0003747285,36.857142450000005,-65.7634525,-180.09868600000001
4627,5148,0.0007648735000000001,-0.000367674,36.857142450000005,-70.634819,-156.2171095
4628,5149,0.000769481,-0.00036007249999999997,36.857142450000005,-75.50618739999999,-132.335529
4629,5150,0.0007609485,-0.0003408505,36.857142450000005,-80.377552,-108.45394885000002
4630,5151,0.0007173995,-0.00031421849999999996,36.857142450000005,-85.2489166,-84.5723686
4631,5152,0.0006452435,-0.000263929,36.857142450000005,-90.120285,-60.69078825
4632,5153,0.0006798724999999999,-0.000369808,12.28571415,-2.435684085,-490.559204
4633,5154,0.0006988229999999999,-0.000395332,12.28571415,-7.307050825,-466.67762749999997
4634,5155,0.0006898435,-0.00039156,12.28571415,-12.178417465,-442.796051
4635,5156,0.0007018335000000001,-0.000397085,12.28571415,-17.049784199999998,-418.9144745
4636,5157,0.0007022705,-0.000395004,12.28571415,-21.921150675,-395.032898
4637,5158,0.000709882,-0.000396355,12.28571415,-26.792517175,-371.1513215
4638,5159,0.000714569,-0.000395278,12.28571415,-31.663883675,-347.26974500000006
4639,5160,0.0007212774999999999,-0.000394809,12.28571415,-36.535251599999995,-323.388153
4640,5161,0.0007281894999999999,-0.0003938225,12.28571415,-41.406618099999996,-299.5065765
4641,5162,0.0007350675,-0.000392191,12.28571415,-46.277984599999996,-275.625
4642,5163,0.0007429184999999999,-0.0003905235,12.28571415,-51.14935299999999,-251.743416
4643,5164,0.000748847,-0.000387032,12.28571415,-56.0207195,-227.86183949999997
4644,5165,0.000755368,-0.00038326349999999996,12.28571415,-60.89208599999999,-203.98026249999998
4645,5166,0.0007562755,-0.0003753575,12.28571415,-65.7634525,-180.09868600000001
4646,5167,0.0007540240000000001,-0.000365274,12.28571415,-70.634819,-156.2171095
4647,5168,0.000738884,-0.000346851,12.28571415,-75.50618739999999,-132.335529
4648,5169,0.0007021185,-0.000318553,12.28571415,-80.377553925,-108.45394885000002
4649,5170,0.0006451195,-0.0002813815,12.28571415,-85.248918525,-84.5723686
4650,5171,0.0005013085,-0.00021263850000000003,12.28571415,-90.120285,-60.69078825
4651,5172,0.13123,0.07274215,1198.5,90.120285,-60.690788250000004
4652,5173,0.13934799999999997,0.07744175,1198.5,85.248918525,-84.5723686
4653,5174,0.14168550000000002,0.07919435,1198.5,80.377553925,-108.45394885000002
4654,5175,0.1444875,0.08127889999999999,1198.5,75.50618739999999,-132.335529
4655,5176,0.14445550000000001,0.0817262,1198.5,70.634819,-156.2171095
4656,5177,0.14528200000000002,0.08260410000000001,1198.5,65.7634525,-180.098686
4657,5178,0.144735,0.08263465,1198.5,60.892086,-203.9802625
4658,5179,0.1449835,0.08306474999999999,1198.5,56.0207195,-227.86183949999997
4659,5180,0.14428400000000002,0.0828817,1198.5,51.14935299999999,-251.74341599999997
4660,5181,0.1444675,0.08315619999999999,1198.5,46.277984599999996,-275.625
4661,5182,0.14346599999999998,0.0826769,1198.5,41.406618099999996,-299.5065765
4662,5183,0.143743,0.08288209999999999,1198.5,36.535251599999995,-323.388153
4663,5184,0.1417655,0.0817205,1198.5,31.663883674999997,-347.269745
4664,5185,0.1418085,0.08166224999999999,1198.5,26.792517174999997,-371.1513215
4665,5186,0.13689800000000002,0.0787205,1198.5,21.921150674999996,-395.032898
4666,5187,0.1348335,0.07742505,1198.5,17.049784199999998,-418.9144745
4667,5188,0.12331349999999999,0.07083075,1198.5,12.178417465,-442.796051
4668,5189,0.11837899999999998,0.06796745,1198.5,7.307050824999999,-466.67762749999997
4669,5190,0.102858,0.05195155,1198.5,2.4356840823667216,-490.559204
4670,5191,0.13876149999999998,0.07610275,1173.5,90.120285,-60.690788250000004
4671,5192,0.141826,0.07841495,1173.5,85.2489166,-84.5723686
4672,5193,0.14436349999999998,0.08042475,1173.5,80.377552,-108.45394885000002
4673,5194,0.1436305,0.08067105,1173.5,75.50618739999999,-132.335529
4674,5195,0.1440455,0.0813976,1173.5,70.634819,-156.2171095
4675,5196,0.14322400000000002,0.0813983,1173.5,65.7634525,-180.098686
4676,5197,0.1432095,0.0817542,1173.5,60.892086,-203.9802625
4677,5198,0.142534,0.08167275,1173.5,56.0207195,-227.86183949999997
4678,5199,0.142501,0.08189905,1173.5,51.14935299999999,-251.74341599999997
4679,5200,0.141864,0.08170050000000001,1173.5,46.277984599999996,-275.625
4680,5201,0.142019,0.08191115,1173.5,41.406618099999996,-299.5065765
4681,5202,0.14122099999999999,0.08149195000000001,1173.5,36.535251599999995,-323.388153
4682,5203,0.1417585,0.0817726,1173.5,31.6638832,-347.269745
4683,5204,0.14022400000000002,0.0808026,1173.5,26.7925167,-371.1513215
4684,5205,0.140996,0.08101230000000001,1173.5,21.9211502,-395.032898
4685,5206,0.136153,0.07805329999999999,1173.5,17.049784199999998,-418.9144745
4686,5207,0.13271149999999998,0.07589035,1173.5,12.1784177,-442.796051
4687,5208,0.120089,0.06907465,1173.5,7.30705118,-466.67762749999997
4688,5209,0.0851549,0.048215549999999996,1173.5,2.43568468,-490.559204
4689,5210,0.143192,0.07839840000000001,1148.5,90.120285,-60.690788250000004
4690,5211,0.14642,0.08084369999999999,1148.5,85.2489166,-84.5723686
4691,5212,0.14491700000000002,0.08082895000000001,1148.5,80.377552,-108.45394885000002
4692,5213,0.144306,0.08097580000000001,1148.5,75.50618739999999,-132.335529
4693,5214,0.142803,0.0807061,1148.5,70.634819,-156.2171095
4694,5215,0.142104,0.0807203,1148.5,65.7634525,-180.098686
4695,5216,0.141225,0.080615,1148.5,60.892086,-203.9802625
4696,5217,0.14078449999999998,0.08067285,1148.5,56.0207195,-227.86183949999997
4697,5218,0.14026850000000002,0.08061995000000001,1148.5,51.14935299999999,-251.74341599999997
4698,5219,0.140099,0.08071545,1148.5,46.277984599999996,-275.625
4699,5220,0.139851,0.08068,1148.5,41.406618099999996,-299.5065765
4700,5221,0.1401385,0.08090125,1148.5,36.535251599999995,-323.388153
4701,5222,0.140209,0.08092655,1148.5,31.6638832,-347.269745
4702,5223,0.141329,0.08144425,1148.5,26.7925167,-371.1513215
4703,5224,0.141111,0.08121325,1148.5,21.9211502,-395.032898
4704,5225,0.14201,0.0813368,1148.5,17.049784199999998,-418.9144745
4705,5226,0.13482,0.0771068,1148.5,12.1784177,-442.796051
4706,5227,0.115094,0.06586705,1148.5,7.30705118,-466.67762749999997
4707,5228,0.07795945000000001,0.04442935,1148.5,2.43568468,-490.559204
4708,5229,0.1469985,0.08028394999999999,1123.5,90.120285,-60.690788250000004
4709,5230,0.1463365,0.08115155,1123.5,85.2489166,-84.5723686
4710,5231,0.14508300000000002,0.08090135,1123.5,80.377552,-108.45394885000002
4711,5232,0.143241,0.08051445,1123.5,75.50618739999999,-132.335529
4712,5233,0.14166649999999997,0.08002315,1123.5,70.634819,-156.2171095
4713,5234,0.1405085,0.0798282,1123.5,65.7634525,-180.098686
4714,5235,0.139492,0.07959805,1123.5,60.892086,-203.9802625
4715,5236,0.13890550000000002,0.0795787,1123.5,56.0207195,-227.86183949999997
4716,5237,0.1383085,0.0794882,1123.5,51.14935299999999,-251.74341599999997
4717,5238,0.13818200000000003,0.07959079999999999,1123.5,46.277984599999996,-275.625
4718,5239,0.1379655,0.07959465,1123.5,41.406618099999996,-299.5065765
4719,5240,0.138424,0.07990509999999999,1123.5,36.535251599999995,-323.388153
4720,5241,0.138755,0.08008005,1123.5,31.6638832,-347.269745
4721,5242,0.1400055,0.08075275000000001,1123.5,26.7925167,-371.1513215
4722,5243,0.14080199999999998,0.08100260000000001,1123.5,21.9211502,-395.032898
4723,5244,0.1411325,0.0811016,1123.5,17.049784199999998,-418.9144745
4724,5245,0.1382835,0.07870265,1123.5,12.1784177,-442.796051
4725,5246,0.117198,0.0651311,1123.5,7.30705118,-466.67762749999997
4726,5247,0.08580874999999999,0.04451915,1123.5,2.43568468,-490.559204
4727,5248,0.14491,0.0793314,1098.5,90.120285,-60.690788250000004
4728,5249,0.14395049999999998,0.0796201,1098.5,85.2489166,-84.5723686
4729,5250,0.14309,0.0799743,1098.5,80.377552,-108.45394885000002
4730,5251,0.1410065,0.0791956,1098.5,75.50618739999999,-132.335529
4731,5252,0.1399975,0.07912630000000001,1098.5,70.634819,-156.2171095
4732,5253,0.138437,0.07860310000000001,1098.5,65.7634525,-180.098686
4733,5254,0.13777450000000002,0.07859630000000001,1098.5,60.892086,-203.9802625
4734,5255,0.13673849999999999,0.0782987,1098.5,56.0207195,-227.86183949999997
4735,5256,0.136542,0.07842655,1098.5,51.14935299999999,-251.74341599999997
4736,5257,0.135892,0.07823844999999999,1098.5,46.277984599999996,-275.625
4737,5258,0.1362775,0.07856895,1098.5,41.406618099999996,-299.5065765
4738,5259,0.13588,0.07839695,1098.5,36.535251599999995,-323.388153
4739,5260,0.1370285,0.07905305,1098.5,31.6638832,-347.269745
4740,5261,0.1365635,0.0787014,1098.5,26.7925167,-371.1513215
4741,5262,0.13835950000000002,0.0796486,1098.5,21.9211502,-395.032898
4742,5263,0.1363735,0.0781134,1098.5,17.049784199999998,-418.9144745
4743,5264,0.135486,0.07718415,1098.5,12.1784177,-442.796051
4744,5265,0.133961,0.07245309999999999,1098.5,7.30705118,-466.67762749999997
4745,5266,0.104935,0.046487150000000005,1098.5,2.43568468,-490.559204
4746,5267,0.139935,0.07574149999999999,1073.5,90.120285,-60.690788250000004
4747,5268,0.141038,0.0779695,1073.5,85.2489166,-84.5723686
4748,5269,0.1390145,0.077489,1073.5,80.377552,-108.45394885000002
4749,5270,0.13895400000000002,0.07805355,1073.5,75.50618739999999,-132.335529
4750,5271,0.13711099999999998,0.0774136,1073.5,70.634819,-156.2171095
4751,5272,0.1365785,0.07751905,1073.5,65.7634525,-180.098686
4752,5273,0.1351735,0.07704554999999999,1073.5,60.892086,-203.9802625
4753,5274,0.1348645,0.07716225,1073.5,56.0207195,-227.86183949999997
4754,5275,0.1339035,0.0768418,1073.5,51.14935299999999,-251.74341599999997
4755,5276,0.134104,0.07712795,1073.5,46.277984599999996,-275.625
4756,5277,0.1333885,0.076827,1073.5,41.406618099999996,-299.5065765
4757,5278,0.13424200000000003,0.0773652,1073.5,36.535251599999995,-323.388153
4758,5279,0.1332615,0.0767836,1073.5,31.6638832,-347.269745
4759,5280,0.1346365,0.0775093,1073.5,26.7925167,-371.1513215
4760,5281,0.1319665,0.07577735000000001,1073.5,21.9211502,-395.032898
4761,5282,0.133083,0.07612075,1073.5,17.049784199999998,-418.9144745
4762,5283,0.126809,0.07132079999999999,1073.5,12.1784177,-442.796051
4763,5284,0.13232,0.07221040000000001,1073.5,7.30705118,-466.67762749999997
4764,5285,0.14360299999999998,0.05684085,1073.5,2.43568468,-490.559204
4765,5286,0.09736115,0.0353042,1048.5,90.120285,-60.690788250000004
4766,5287,0.0920074,0.0353042,1048.5,85.248918525,-84.5723686
4767,5288,0.08689065,0.0353042,1048.5,80.377553925,-108.45394885000002
4768,5289,0.08205515000000001,0.0353042,1048.5,75.50618739999999,-132.335529
4769,5290,0.07755355,0.0353042,1048.5,70.634819,-156.2171095
4770,5291,0.07344724999999999,0.0353042,1048.5,65.7634525,-180.098686
4771,5292,0.06980605,0.0353042,1048.5,60.892086,-203.9802625
4772,5293,0.06670620000000001,0.0353042,1048.5,56.0207195,-227.86183949999997
4773,5294,0.06422605,0.0353042,1048.5,51.14935299999999,-251.74341599999997
4774,5295,0.062439549999999996,0.0353042,1048.5,46.277984599999996,-275.625
4775,5296,0.061407199999999995,0.0353042,1048.5,41.406618099999996,-299.5065765
4776,5297,0.0611672,0.0353042,1048.5,36.535251599999995,-323.388153
4777,5298,0.06172885,0.0353042,1048.5,31.663883674999997,-347.269745
4778,5299,0.0630706,0.0353042,1048.5,26.792517175,-371.1513215
4779,5300,0.06514439999999999,0.0353042,1048.5,21.921150675,-395.032898
4780,5301,0.0678832,0.0353042,1048.5,17.049784199999998,-418.9144745
4781,5302,0.07121025,0.0353042,1048.5,12.178417465,-442.796051
4782,5303,0.07504740000000001,0.0353042,1048.5,7.307050825000001,-466.67762749999997
4783,5304,0.07932070000000001,0.0353042,1048.5,2.435684085,-490.559204
4784,5305,0.0997534,0.057465600000000006,1198.5,100.0139923,-12.1875
4785,5306,0.12375399999999999,0.0689985,1198.5,95.04197690000001,-36.5625
4786,5307,0.1019262,0.05694325,1173.5,100.0139923,-12.1875
4787,5308,0.12884249999999997,0.0713186,1173.5,95.04197690000001,-36.5625
4788,5309,0.1062795,0.05572455,1148.5,100.0139923,-12.1875
4789,5310,0.130517,0.0707005,1148.5,95.04197690000001,-36.5625
4790,5311,0.1182835,0.05792265,1123.5,100.0139923,-12.1875
4791,5312,0.1371345,0.07228905,1123.5,95.04197690000001,-36.5625
4792,5313,0.1350385,0.06298020000000001,1098.5,100.0139923,-12.1875
4793,5314,0.14823200000000003,0.07751569999999999,1098.5,95.04197690000001,-36.5625
4794,5315,0.152804,0.06712169999999999,1073.5,100.0139923,-12.1875
4795,5316,0.14541700000000002,0.07662705,1073.5,95.04197690000001,-36.5625
4796,5317,0.108818,0.0353042,1048.5,100.0139923,-12.1875
4797,5318,0.10297300000000001,0.0353042,1048.5,95.04197690000001,-36.5625
4798,5319,0.0009798950000000002,-0.0002813625,159.714287,-95.0419769,-36.5625
4799,5320,0.00155152,-0.000130644,159.714287,-100.01399229999998,-12.1875
4800,5321,0.00103009,-0.00028770049999999995,135.142857,-95.0419769,-36.5625
4801,5322,0.00119932,-2.054354e-05,135.142857,-100.01399229999998,-12.1875
4802,5323,0.000827489,-0.00018582050000000001,110.5714266,-95.0419769,-36.5625
4803,5324,0.0009021125,6.001085e-05,110.5714266,-100.01399229999998,-12.1875
4804,5325,0.0006383945,-0.0001549165,86.0,-95.0419769,-36.5625
4805,5326,0.000623859,9.919980000000001e-05,86.0,-100.01399229999998,-12.1875
4806,5327,0.00046111650000000003,-0.00014311,61.428571700000006,-95.0419769,-36.5625
4807,5328,0.000352787,0.00010594865,61.428571700000006,-100.01399229999998,-12.1875
4808,5329,0.0004096865,-0.0001968925,36.857142450000005,-95.0419769,-36.5625
4809,5330,0.0001671045,7.83046e-05,36.857142450000005,-100.01399229999998,-12.1875
4810,5331,0.00036034,-0.00016545900000000002,12.28571415,-95.0419769,-36.5625
4811,5332,0.00039930299999999994,1.0777629999999999e-05,12.28571415,-100.01399229999998,-12.1875
4812,5333,0.05227,-0.015504800000000001,1048.5,13.2644758,100.75370025000001
4813,5334,0.0629212,-0.01995405,1073.5,13.2644758,100.75370025000001
4814,5335,0.05932625,-0.02129765,1098.5,13.2644758,100.75370025000001
4815,5336,0.048663250000000005,-0.020901,1123.5,13.2644758,100.75370025000001
4816,5337,0.040847949999999994,-0.0211038,1148.5,13.2644758,100.75370025000001
4817,5338,0.03744775,-0.021177900000000003,1173.5,13.2644758,100.75370025000001
4818,5339,0.037536,-0.02097865,1198.5,13.2644758,100.75370025000001
4819,5340,0.06293789999999999,-0.0058652900000000004,1048.5,38.8894758,93.88750075
4820,5341,0.0677955,-0.005010519999999999,1073.5,38.8894758,93.88750075
4821,5342,0.06053794999999999,-0.006462115,1098.5,38.8894758,93.88750075
4822,5343,0.0476845,-0.00596782,1123.5,38.8894758,93.88750075
4823,5344,0.028013850000000003,-0.005781245,1148.5,38.8894758,93.88750075
4824,5345,0.0177052,-0.00595101,1173.5,38.8894758,93.88750075
4825,5346,0.01341345,-0.005625514999999999,1198.5,38.8894758,93.88750075
4826,5347,0.07687195,0.004107690000000001,1048.5,61.86422350000001,80.623024
4827,5348,0.0802894,0.0108294,1073.5,61.86422350000001,80.623024
4828,5349,0.0748278,0.010343000000000001,1098.5,61.86422350000001,80.623024
4829,5350,0.05852465,0.0113195,1123.5,61.86422350000001,80.623024
4830,5351,0.040625949999999994,0.0114973,1148.5,61.86422350000001,80.623024
4831,5352,0.02872505,0.011733,1173.5,61.86422350000001,80.623024
4832,5353,0.021896600000000002,0.01115375,1198.5,61.86422350000001,80.623024
4833,5354,0.0903371,0.0137345,1048.5,80.623024,61.8642235
4834,5355,0.1048646,0.031240749999999998,1073.5,80.623024,61.8642235
4835,5356,0.0940065,0.02980745,1098.5,80.623024,61.8642235
4836,5357,0.07997685,0.0292658,1123.5,80.623024,61.8642235
4837,5358,0.0643026,0.02930285,1148.5,80.623024,61.8642235
4838,5359,0.05817135,0.0295384,1173.5,80.623024,61.8642235
4839,5360,0.0540312,0.03032495,1198.5,80.623024,61.8642235
4840,5361,0.1009345,0.0223591,1048.5,93.88750075,38.8894758
4841,5362,0.1336,0.05347999999999999,1073.5,93.88750075,38.8894758
4842,5363,0.126669,0.051047300000000004,1098.5,93.88750075,38.8894758
4843,5364,0.1102875,0.05090025,1123.5,93.88750075,38.8894758
4844,5365,0.0940025,0.04877895,1148.5,93.88750075,38.8894758
4845,5366,0.08572515,0.0472495,1173.5,93.88750075,38.8894758
4846,5367,0.0802792,0.0456373,1198.5,93.88750075,38.8894758
4847,5368,0.107176,0.0293938,1048.5,100.75370025000001,13.2644758
4848,5369,0.178384,0.07865820000000001,1073.5,100.75370025000001,13.2644758
4849,5370,0.16705899999999999,0.08071600000000001,1098.5,100.75370025000001,13.2644758
4850,5371,0.14193899999999998,0.07261375,1123.5,100.75370025000001,13.2644758
4851,5372,0.1316145,0.07171340000000001,1148.5,100.75370025000001,13.2644758
4852,5373,0.12306149999999999,0.07006755,1173.5,100.75370025000001,13.2644758
4853,5374,0.108018,0.06223545,1198.5,100.75370025000001,13.2644758
4854,5431,0.0008229095000000001,-0.00027704650000000004,159.714287,90.120285,-60.690788250000004
4855,5432,0.0007760585,-0.000321343,159.714287,85.248918525,-84.5723686
4856,5433,0.0007473855000000001,-0.00032986150000000004,159.714287,80.377553925,-108.45394885000002
4857,5434,0.0007381754999999999,-0.000342832,159.714287,75.50618739999999,-132.335529
4858,5435,0.0007233705,-0.0003445344999999999,159.714287,70.634819,-156.2171095
4859,5436,0.0007104570000000001,-0.00034570650000000005,159.714287,65.7634525,-180.098686
4860,5437,0.0006945160000000001,-0.00034398349999999997,159.714287,60.892086,-203.9802625
4861,5438,0.0006799795,-0.00034260599999999997,159.714287,56.0207195,-227.86183949999997
4862,5439,0.0006647705,-0.00034056449999999997,159.714287,51.14935299999999,-251.74341599999997
4863,5440,0.0006516250000000001,-0.0003392915,159.714287,46.277984599999996,-275.625
4864,5441,0.00063864,-0.00033774299999999994,159.714287,41.406618099999996,-299.5065765
4865,5442,0.0006282925,-0.000337108,159.714287,36.535251599999995,-323.388153
4866,5443,0.0006174995,-0.000335743,159.714287,31.663883674999997,-347.269745
4867,5444,0.000610991,-0.000336029,159.714287,26.792517174999997,-371.1513215
4868,5445,0.000600506,-0.00033361649999999997,159.714287,21.921150674999996,-395.032898
4869,5446,0.000599341,-0.000335454,159.714287,17.049784199999998,-418.9144745
4870,5447,0.00058563,-0.000329634,159.714287,12.178417465,-442.796051
4871,5448,0.000593471,-0.000333209,159.714287,7.307050824999999,-466.67762749999997
4872,5449,0.000575673,-0.000311446,159.714287,2.4356840823667216,-490.559204
4873,5450,0.0008302195,-0.0003261045,135.142857,90.120285,-60.690788250000004
4874,5451,0.0008090045000000001,-0.000349167,135.142857,85.2489166,-84.5723686
4875,5452,0.000777088,-0.0003594435,135.142857,80.377552,-108.45394885000002
4876,5453,0.000763666,-0.000361557,135.142857,75.50618739999999,-132.335529
4877,5454,0.000744225,-0.000360085,135.142857,70.634819,-156.2171095
4878,5455,0.0007271935000000001,-0.00035733049999999995,135.142857,65.7634525,-180.098686
4879,5456,0.0007101789999999999,-0.00035487600000000006,135.142857,60.892086,-203.9802625
4880,5457,0.0006936290000000001,-0.0003523145,135.142857,56.0207195,-227.86183949999997
4881,5458,0.000678839,-0.000350659,135.142857,51.14935299999999,-251.74341599999997
4882,5459,0.000664672,-0.00034902,135.142857,46.277984599999996,-275.625
4883,5460,0.0006525540000000001,-0.000348095,135.142857,41.406618099999996,-299.5065765
4884,5461,0.0006411585,-0.0003471415,135.142857,36.535251599999995,-323.388153
4885,5462,0.000632141,-0.000346771,135.142857,31.6638832,-347.269745
4886,5463,0.0006231195000000001,-0.00034603,135.142857,26.7925167,-371.1513215
4887,5464,0.000618251,-0.000346493,135.142857,21.9211502,-395.032898
4888,5465,0.0006092375000000001,-0.000344575,135.142857,17.049784199999998,-418.9144745
4889,5466,0.0006106555,-0.0003471905,135.142857,12.1784177,-442.796051
4890,5467,0.0006021475,-0.000343796,135.142857,7.30705118,-466.67762749999997
4891,5468,0.0006298105,-0.000362383,135.142857,2.43568468,-490.559204
4892,5469,0.0008586225,-0.000341907,110.5714266,90.120285,-60.690788250000004
4893,5470,0.0008086835,-0.00036326749999999997,110.5714266,85.2489166,-84.5723686
4894,5471,0.000818002,-0.00038336049999999997,110.5714266,80.377552,-108.45394885000002
4895,5472,0.0007844695,-0.000375962,110.5714266,75.50618739999999,-132.335529
4896,5473,0.00076723,-0.000373293,110.5714266,70.634819,-156.2171095
4897,5474,0.0007433015,-0.000367433,110.5714266,65.7634525,-180.098686
4898,5475,0.000724796,-0.00036392900000000003,110.5714266,60.892086,-203.9802625
4899,5476,0.0007071635000000001,-0.0003612235,110.5714266,56.0207195,-227.86183949999997
4900,5477,0.0006917625,-0.0003593315,110.5714266,51.14935299999999,-251.74341599999997
4901,5478,0.000678065,-0.000358184,110.5714266,46.277984599999996,-275.625
4902,5479,0.0006659505,-0.000357408,110.5714266,41.406618099999996,-299.5065765
4903,5480,0.0006552015000000001,-0.00035682849999999996,110.5714266,36.535251599999995,-323.388153
4904,5481,0.0006463045000000001,-0.00035680550000000003,110.5714266,31.6638832,-347.269745
4905,5482,0.0006384945,-0.00035651599999999997,110.5714266,26.7925167,-371.1513215
4906,5483,0.000632601,-0.00035696899999999995,110.5714266,21.9211502,-395.032898
4907,5484,0.000630079,-0.00035813450000000003,110.5714266,17.049784199999998,-418.9144745
4908,5485,0.000622303,-0.0003562255,110.5714266,12.1784177,-442.796051
4909,5486,0.0006346645,-0.0003655565,110.5714266,7.30705118,-466.67762749999997
4910,5487,0.0006029775,-0.000347452,110.5714266,2.43568468,-490.559204
4911,5488,0.0007494825,-0.000294068,86.0,90.120285,-60.690788250000004
4912,5489,0.0008370235000000001,-0.0003799665,86.0,85.2489166,-84.5723686
4913,5490,0.0008122025,-0.0003778285,86.0,80.377552,-108.45394885000002
4914,5491,0.000805628,-0.00038503150000000004,86.0,75.50618739999999,-132.335529
4915,5492,0.0007756729999999999,-0.00037673199999999996,86.0,70.634819,-156.2171095
4916,5493,0.000756783,-0.000374158,86.0,65.7634525,-180.098686
4917,5494,0.0007355554999999999,-0.0003702885,86.0,60.892086,-203.9802625
4918,5495,0.000719344,-0.0003685545,86.0,56.0207195,-227.86183949999997
4919,5496,0.0007041365,-0.000367276,86.0,51.14935299999999,-251.74341599999997
4920,5497,0.0006915014999999999,-0.0003667335,86.0,46.277984599999996,-275.625
4921,5498,0.000679784,-0.0003662985,86.0,41.406618099999996,-299.5065765
4922,5499,0.0006703429999999999,-0.0003664865,86.0,36.535251599999995,-323.388153
4923,5500,0.00066108,-0.00036616350000000003,86.0,31.6638832,-347.269745
4924,5501,0.0006550919999999999,-0.0003670735,86.0,26.7925167,-371.1513215
4925,5502,0.0006488355,-0.0003671065,86.0,21.9211502,-395.032898
4926,5503,0.000645623,-0.0003682175,86.0,17.049784199999998,-418.9144745
4927,5504,0.000649637,-0.000372706,86.0,12.1784177,-442.796051
4928,5505,0.0006263734999999999,-0.00036074450000000004,86.0,7.30705118,-466.67762749999997
4929,5506,0.0006490064999999999,-0.0003745635,86.0,2.43568468,-490.559204
4930,5507,0.0007078125,-0.000304818,61.428571700000006,90.120285,-60.690788250000004
4931,5508,0.000784008,-0.0003405805,61.428571700000006,85.2489166,-84.5723686
4932,5509,0.00080757,-0.0003727305,61.428571700000006,80.377552,-108.45394885000002
4933,5510,0.000791356,-0.0003720695,61.428571700000006,75.50618739999999,-132.335529
4934,5511,0.000779068,-0.000376483,61.428571700000006,70.634819,-156.2171095
4935,5512,0.000758609,-0.00037435599999999995,61.428571700000006,65.7634525,-180.098686
4936,5513,0.0007441565,-0.000374883,61.428571700000006,60.892086,-203.9802625
4937,5514,0.00072865,-0.00037433,61.428571700000006,56.0207195,-227.86183949999997
4938,5515,0.0007165955,-0.00037475050000000004,61.428571700000006,51.14935299999999,-251.74341599999997
4939,5516,0.0007046775,-0.000374834,61.428571700000006,46.277984599999996,-275.625
4940,5517,0.0006950405,-0.0003753865,61.428571700000006,41.406618099999996,-299.5065765
4941,5518,0.000685466,-0.000375486,61.428571700000006,36.535251599999995,-323.388153
4942,5519,0.0006783984999999999,-0.00037622899999999995,61.428571700000006,31.6638832,-347.269745
4943,5520,0.0006709344999999999,-0.0003762635,61.428571700000006,26.7925167,-371.1513215
4944,5521,0.000666607,-0.00037721200000000003,61.428571700000006,21.9211502,-395.032898
4945,5522,0.000663419,-0.000378386,61.428571700000006,17.049784199999998,-418.9144745
4946,5523,0.000658037,-0.000377361,61.428571700000006,12.1784177,-442.796051
4947,5524,0.000672554,-0.00038710000000000003,61.428571700000006,7.30705118,-466.67762749999997
4948,5525,0.0006363320000000001,-0.00036701750000000003,61.428571700000006,2.43568468,-490.559204
4949,5526,0.0006452435,-0.000263929,36.857142450000005,90.120285,-60.690788250000004
4950,5527,0.0007173995,-0.00031421849999999996,36.857142450000005,85.2489166,-84.5723686
4951,5528,0.0007609485,-0.0003408505,36.857142450000005,80.377552,-108.45394885000002
4952,5529,0.000769481,-0.00036007249999999997,36.857142450000005,75.50618739999999,-132.335529
4953,5530,0.0007648735000000001,-0.000367674,36.857142450000005,70.634819,-156.2171095
4954,5531,0.00075888,-0.0003747285,36.857142450000005,65.7634525,-180.098686
4955,5532,0.00074771,-0.000377501,36.857142450000005,60.892086,-203.9802625
4956,5533,0.0007389390000000001,-0.0003805655,36.857142450000005,56.0207195,-227.86183949999997
4957,5534,0.0007283195,-0.00038191799999999997,36.857142450000005,51.14935299999999,-251.74341599999997
4958,5535,0.0007196934999999999,-0.0003835125,36.857142450000005,46.277984599999996,-275.625
4959,5536,0.0007105745,-0.000384285,36.857142450000005,41.406618099999996,-299.5065765
4960,5537,0.000703054,-0.0003851905,36.857142450000005,36.535251599999995,-323.388153
4961,5538,0.0006957005,-0.00038571699999999994,36.857142450000005,31.6638832,-347.269745
4962,5539,0.000689544,-0.000386057,36.857142450000005,26.7925167,-371.1513215
4963,5540,0.0006848815,-0.0003868675,36.857142450000005,21.9211502,-395.032898
4964,5541,0.000678438,-0.00038572599999999997,36.857142450000005,17.049784199999998,-418.9144745
4965,5542,0.0006794895,-0.0003882775,36.857142450000005,12.1784177,-442.796051
4966,5543,0.000673894,-0.0003856635,36.857142450000005,7.30705118,-466.67762749999997
4967,5544,0.0007105804999999999,-0.0004075295,36.857142450000005,2.43568468,-490.559204
4968,5545,0.0005013085,-0.00021263850000000003,12.28571415,90.120285,-60.690788250000004
4969,5546,0.0006451195,-0.0002813815,12.28571415,85.248918525,-84.5723686
4970,5547,0.0007021185,-0.000318553,12.28571415,80.377553925,-108.45394885000002
4971,5548,0.000738884,-0.000346851,12.28571415,75.50618739999999,-132.335529
4972,5549,0.0007540240000000001,-0.000365274,12.28571415,70.634819,-156.2171095
4973,5550,0.0007562755,-0.0003753575,12.28571415,65.7634525,-180.098686
4974,5551,0.000755368,-0.00038326349999999996,12.28571415,60.892086,-203.9802625
4975,5552,0.000748847,-0.000387032,12.28571415,56.0207195,-227.86183949999997
4976,5553,0.0007429184999999999,-0.0003905235,12.28571415,51.14935299999999,-251.74341599999997
4977,5554,0.0007350675,-0.000392191,12.28571415,46.277984599999996,-275.625
4978,5555,0.0007281894999999999,-0.0003938225,12.28571415,41.406618099999996,-299.5065765
4979,5556,0.0007212774999999999,-0.000394809,12.28571415,36.535251599999995,-323.388153
4980,5557,0.000714569,-0.000395278,12.28571415,31.663883674999997,-347.269745
4981,5558,0.000709882,-0.000396355,12.28571415,26.792517175,-371.1513215
4982,5559,0.0007022705,-0.000395004,12.28571415,21.921150675,-395.032898
4983,5560,0.0007018335000000001,-0.000397085,12.28571415,17.049784199999998,-418.9144745
4984,5561,0.0006898435,-0.00039156,12.28571415,12.178417465,-442.796051
4985,5562,0.0006988229999999999,-0.000395332,12.28571415,7.307050825000001,-466.67762749999997
4986,5563,0.0006798724999999999,-0.000369808,12.28571415,2.435684085,-490.559204
4987,5564,0.08552355,0.01411745,1023.6571349999999,-2.435684085,-490.559204
4988,5565,0.0647297,0.016631850000000004,1023.6571349999999,-7.307050825,-466.67762749999997
4989,5566,0.058942150000000006,0.012517450000000001,1023.6571349999999,-12.178417465,-442.796051
4990,5567,0.05580295,0.0124749,1023.6571349999999,-17.049784199999998,-418.9144745
4991,5568,0.05397885,0.01072595,1023.6571349999999,-21.921150675,-395.032898
4992,5569,0.0529311,0.01030525,1023.6571349999999,-26.792517174999997,-371.1513215
4993,5570,0.0521875,0.009206665,1023.6571349999999,-31.663883674999997,-347.26974500000006
4994,5571,0.0516639,0.00866423,1023.6571349999999,-36.535251599999995,-323.388153
4995,5572,0.051231399999999996,0.00783818,1023.6571349999999,-41.406618099999996,-299.5065765
4996,5573,0.0508276,0.007271835,1023.6571349999999,-46.277984599999996,-275.625
4997,5574,0.050467700000000004,0.00660033,1023.6571349999999,-51.14935299999999,-251.743416
4998,5575,0.050067650000000005,0.006037885,1023.6571349999999,-56.0207195,-227.86183949999997
4999,5576,0.049738450000000003,0.0054746199999999995,1023.6571349999999,-60.89208599999999,-203.98026249999998
5000,5577,0.0493591,0.00490891,1023.6571349999999,-65.7634525,-180.09868600000001
5001,5578,0.049164599999999996,0.0044410000000000005,1023.6571349999999,-70.634819,-156.2171095
5002,5579,0.048971799999999996,0.00383324,1023.6571349999999,-75.50618739999999,-132.335529
5003,5580,0.0492759,0.003466955,1023.6571349999999,-80.377553925,-108.45394885000002
5004,5581,0.04972775,0.002653865,1023.6571349999999,-85.24891852500001,-84.5723686
5005,5582,0.05169594999999999,0.00241749,1023.6571349999999,-90.120285,-60.69078825
5006,5583,0.06994689999999999,0.00294429,998.9714355,-2.43568468,-490.559204
5007,5584,0.070119,0.012791399999999998,998.9714355,-7.307051179999999,-466.67762749999997
5008,5585,0.0593312,0.0125028,998.9714355,-12.1784177,-442.796051
5009,5586,0.0578131,0.0113825,998.9714355,-17.049784199999998,-418.9144745
5010,5587,0.0549563,0.01088975,998.9714355,-21.9211502,-395.032898
5011,5588,0.0542358,0.009817204999999999,998.9714355,-26.7925167,-371.1513215
5012,5589,0.053110500000000005,0.00924748,998.9714355,-31.6638832,-347.26974500000006
5013,5590,0.052706,0.008403585,998.9714355,-36.535251599999995,-323.388153
5014,5591,0.052076899999999995,0.007840115,998.9714355,-41.406618099999996,-299.5065765
5015,5592,0.051749649999999994,0.007157565,998.9714355,-46.277984599999996,-275.625
5016,5593,0.051252000000000006,0.0066184,998.9714355,-51.14935299999999,-251.743416
5017,5594,0.0509425,0.006042044999999999,998.9714355,-56.0207195,-227.86183949999997
5018,5595,0.0504753,0.005510445,998.9714355,-60.89208599999999,-203.98026249999998
5019,5596,0.0502402,0.005006685,998.9714355,-65.7634525,-180.09868600000001
5020,5597,0.04985845,0.004459815000000001,998.9714355,-70.634819,-156.2171095
5021,5598,0.049954799999999994,0.004017085,998.9714355,-75.50618739999999,-132.335529
5022,5599,0.049938800000000005,0.0034360199999999997,998.9714355,-80.377552,-108.45394885000002
5023,5600,0.051191150000000005,0.003046145,998.9714355,-85.2489166,-84.5723686
5024,5601,0.05230195,0.002493475,998.9714355,-90.120285,-60.69078825
5025,5602,0.061384400000000006,0.00116649,974.285736,-2.43568468,-490.559204
5026,5603,0.0624435,0.005298305,974.285736,-7.307051179999999,-466.67762749999997
5027,5604,0.0620925,0.0101763,974.285736,-12.1784177,-442.796051
5028,5605,0.057056050000000004,0.009956055,974.285736,-17.049784199999998,-418.9144745
5029,5606,0.05670165,0.00987356,974.285736,-21.9211502,-395.032898
5030,5607,0.0546406,0.009310555,974.285736,-26.7925167,-371.1513215
5031,5608,0.05433734999999999,0.008704355,974.285736,-31.6638832,-347.26974500000006
5032,5609,0.0533256,0.008140245,974.285736,-36.535251599999995,-323.388153
5033,5610,0.05304845,0.00754304,974.285736,-41.406618099999996,-299.5065765
5034,5611,0.05240155,0.007037845,974.285736,-46.277984599999996,-275.625
5035,5612,0.052131050000000005,0.006510925,974.285736,-51.14935299999999,-251.743416
5036,5613,0.051602499999999996,0.006041655,974.285736,-56.0207195,-227.86183949999997
5037,5614,0.05137045,0.005569279999999999,974.285736,-60.89208599999999,-203.98026249999998
5038,5615,0.05091285,0.0051122749999999995,974.285736,-65.7634525,-180.09868600000001
5039,5616,0.050868300000000005,0.00468755,974.285736,-70.634819,-156.2171095
5040,5617,0.05063095000000001,0.004282585,974.285736,-75.50618739999999,-132.335529
5041,5618,0.0512475,0.00395357,974.285736,-80.377552,-108.45394885000002
5042,5619,0.051794400000000004,0.00388056,974.285736,-85.2489166,-84.5723686
5043,5620,0.0544196,0.00383987,974.285736,-90.120285,-60.69078825
5044,5621,0.0571447,-0.0010257460000000001,949.6000060000001,-2.43568468,-490.559204
5045,5622,0.05825165,0.0035970150000000003,949.6000060000001,-7.307051179999999,-466.67762749999997
5046,5623,0.0581677,0.005748735,949.6000060000001,-12.1784177,-442.796051
5047,5624,0.05834465,0.00836419,949.6000060000001,-17.049784199999998,-418.9144745
5048,5625,0.0559248,0.008179805,949.6000060000001,-21.9211502,-395.032898
5049,5626,0.05586195,0.008378759999999999,949.6000060000001,-26.7925167,-371.1513215
5050,5627,0.05446235,0.007892610000000001,949.6000060000001,-31.6638832,-347.26974500000006
5051,5628,0.0542617,0.007588565,949.6000060000001,-36.535251599999995,-323.388153
5052,5629,0.053424299999999994,0.007146754999999999,949.6000060000001,-41.406618099999996,-299.5065765
5053,5630,0.053199949999999996,0.006770025,949.6000060000001,-46.277984599999996,-275.625
5054,5631,0.05260310000000001,0.006390715,949.6000060000001,-51.14935299999999,-251.743416
5055,5632,0.0523999,0.00602484,949.6000060000001,-56.0207195,-227.86183949999997
5056,5633,0.05191485,0.00568175,949.6000060000001,-60.89208599999999,-203.98026249999998
5057,5634,0.05181025,0.0053428650000000005,949.6000060000001,-65.7634525,-180.09868600000001
5058,5635,0.0514655,0.005068425,949.6000060000001,-70.634819,-156.2171095
5059,5636,0.05168125,0.0048309649999999996,949.6000060000001,-75.50618739999999,-132.335529
5060,5637,0.05179275,0.0048867649999999995,949.6000060000001,-80.377552,-108.45394885000002
5061,5638,0.05289865,0.005054325,949.6000060000001,-85.2489166,-84.5723686
5062,5639,0.05460395,0.0064501,949.6000060000001,-90.120285,-60.69078825
5063,5640,0.052601350000000005,-0.002169565,924.914276,-2.43568468,-490.559204
5064,5641,0.0549699,0.0010049205,924.914276,-7.307051179999999,-466.67762749999997
5065,5642,0.05619565,0.004317555,924.914276,-12.1784177,-442.796051
5066,5643,0.056153549999999997,0.005337415,924.914276,-17.049784199999998,-418.9144745
5067,5644,0.056455200000000004,0.006895175,924.914276,-21.9211502,-395.032898
5068,5645,0.055198750000000005,0.006722805,924.914276,-26.7925167,-371.1513215
5069,5646,0.05511125,0.0070214,924.914276,-31.6638832,-347.26974500000006
5070,5647,0.054176,0.00672907,924.914276,-36.535251599999995,-323.388153
5071,5648,0.05400195,0.0066524900000000005,924.914276,-41.406618099999996,-299.5065765
5072,5649,0.053347599999999995,0.006406505,924.914276,-46.277984599999996,-275.625
5073,5650,0.0531836,0.00623626,924.914276,-51.14935299999999,-251.743416
5074,5651,0.052690799999999996,0.006037809999999999,924.914276,-56.0207195,-227.86183949999997
5075,5652,0.05258499999999999,0.005853575,924.914276,-60.89208599999999,-203.98026249999998
5076,5653,0.052212850000000005,0.00571802,924.914276,-65.7634525,-180.09868600000001
5077,5654,0.0522495,0.00559463,924.914276,-70.634819,-156.2171095
5078,5655,0.05209595,0.00568602,924.914276,-75.50618739999999,-132.335529
5079,5656,0.052455699999999994,0.005895365,924.914276,-80.377552,-108.45394885000002
5080,5657,0.0530162,0.006824429999999999,924.914276,-85.2489166,-84.5723686
5081,5658,0.0539256,0.00825312,924.914276,-90.120285,-60.69078825
5082,5659,0.04957535,-0.00347732,900.2285764999999,-2.43568468,-490.559204
5083,5660,0.0517549,-0.00012638735,900.2285764999999,-7.307051179999999,-466.67762749999997
5084,5661,0.053913699999999995,0.00178274,900.2285764999999,-12.1784177,-442.796051
5085,5662,0.05499805,0.004008605,900.2285764999999,-17.049784199999998,-418.9144745
5086,5663,0.05503395,0.0044402899999999995,900.2285764999999,-21.9211502,-395.032898
5087,5664,0.055089,0.00554699,900.2285764999999,-26.7925167,-371.1513215
5088,5665,0.054419,0.005567295,900.2285764999999,-31.6638832,-347.26974500000006
5089,5666,0.05430399999999999,0.00596178,900.2285764999999,-36.535251599999995,-323.388153
5090,5667,0.053690749999999995,0.00592772,900.2285764999999,-41.406618099999996,-299.5065765
5091,5668,0.0535722,0.0060552950000000005,900.2285764999999,-46.277984599999996,-275.625
5092,5669,0.053099999999999994,0.006042765,900.2285764999999,-51.14935299999999,-251.743416
5093,5670,0.053023799999999996,0.006083415,900.2285764999999,-56.0207195,-227.86183949999997
5094,5671,0.05267205,0.006118815,900.2285764999999,-60.89208599999999,-203.98026249999998
5095,5672,0.05266535,0.00616618,900.2285764999999,-65.7634525,-180.09868600000001
5096,5673,0.052432999999999994,0.00634209,900.2285764999999,-70.634819,-156.2171095
5097,5674,0.0525173,0.00657834,900.2285764999999,-75.50618739999999,-132.335529
5098,5675,0.052484499999999996,0.00720845,900.2285764999999,-80.377552,-108.45394885000002
5099,5676,0.05262335,0.00821741,900.2285764999999,-85.2489166,-84.5723686
5100,5677,0.053133150000000004,0.010014915,900.2285764999999,-90.120285,-60.69078825
5101,5678,0.0459992,-0.00457831,875.5428769999999,-2.43568468,-490.559204
5102,5679,0.049497,-0.001859935,875.5428769999999,-7.307051179999999,-466.67762749999997
5103,5680,0.05181820000000001,0.0005307145,875.5428769999999,-12.1784177,-442.796051
5104,5681,0.053413100000000005,0.001372715,875.5428769999999,-17.049784199999998,-418.9144745
5105,5682,0.05367705,0.00305377,875.5428769999999,-21.9211502,-395.032898
5106,5683,0.05382094999999999,0.00357162,875.5428769999999,-26.7925167,-371.1513215
5107,5684,0.053789699999999996,0.00453028,875.5428769999999,-31.6638832,-347.26974500000006
5108,5685,0.0534469,0.004829485,875.5428769999999,-36.535251599999995,-323.388153
5109,5686,0.0533947,0.005350280000000001,875.5428769999999,-41.406618099999996,-299.5065765
5110,5687,0.053022,0.00558207,875.5428769999999,-46.277984599999996,-275.625
5111,5688,0.05299585,0.00591109,875.5428769999999,-51.14935299999999,-251.743416
5112,5689,0.0527006,0.006150414999999999,875.5428769999999,-56.0207195,-227.86183949999997
5113,5690,0.052712499999999995,0.00642479,875.5428769999999,-60.89208599999999,-203.98026249999998
5114,5691,0.0525031,0.00674915,875.5428769999999,-65.7634525,-180.09868600000001
5115,5692,0.0525337,0.007104535,875.5428769999999,-70.634819,-156.2171095
5116,5693,0.052369149999999996,0.0076779050000000005,875.5428769999999,-75.50618739999999,-132.335529
5117,5694,0.0523038,0.008419139999999999,875.5428769999999,-80.377552,-108.45394885000002
5118,5695,0.05200755,0.009569910000000001,875.5428769999999,-85.2489166,-84.5723686
5119,5696,0.05173635,0.01147045,875.5428769999999,-90.120285,-60.69078825
5120,5697,0.0433215,-0.005699065,850.8571469999999,-2.43568468,-490.559204
5121,5698,0.0473665,-0.003138675,850.8571469999999,-7.307051179999999,-466.67762749999997
5122,5699,0.050545599999999996,-0.002277295,850.8571469999999,-12.1784177,-442.796051
5123,5700,0.0508608,-0.00025400965,850.8571469999999,-17.049784199999998,-418.9144745
5124,5701,0.0520443,0.000863232,850.8571469999999,-21.9211502,-395.032898
5125,5702,0.052173849999999994,0.0023095950000000002,850.8571469999999,-26.7925167,-371.1513215
5126,5703,0.05238595,0.003086015,850.8571469999999,-31.6638832,-347.26974500000006
5127,5704,0.052464649999999995,0.004048495,850.8571469999999,-36.535251599999995,-323.388153
5128,5705,0.0523377,0.00460196,850.8571469999999,-41.406618099999996,-299.5065765
5129,5706,0.052401249999999996,0.005265685,850.8571469999999,-46.277984599999996,-275.625
5130,5707,0.052222149999999995,0.0057389550000000004,850.8571469999999,-51.14935299999999,-251.743416
5131,5708,0.0522846,0.006272524999999999,850.8571469999999,-56.0207195,-227.86183949999997
5132,5709,0.05213975,0.00677613,850.8571469999999,-60.89208599999999,-203.98026249999998
5133,5710,0.05219064999999999,0.00731985,850.8571469999999,-65.7634525,-180.09868600000001
5134,5711,0.052064799999999994,0.0079801,850.8571469999999,-70.634819,-156.2171095
5135,5712,0.052017100000000004,0.008715365,850.8571469999999,-75.50618739999999,-132.335529
5136,5713,0.0517244,0.009704595,850.8571469999999,-80.377552,-108.45394885000002
5137,5714,0.0513551,0.0109608,850.8571469999999,-85.2489166,-84.5723686
5138,5715,0.0503304,0.012502300000000001,850.8571469999999,-90.120285,-60.69078825
5139,5716,0.0414451,-0.00749003,826.171417,-2.43568468,-490.559204
5140,5717,0.0471892,-0.00671373,826.171417,-7.307051179999999,-466.67762749999997
5141,5718,0.04689575,-0.004423575,826.171417,-12.1784177,-442.796051
5142,5719,0.0489374,-0.002429485,826.171417,-17.049784199999998,-418.9144745
5143,5720,0.0493764,-0.0005980585,826.171417,-21.9211502,-395.032898
5144,5721,0.050264,0.0007989445,826.171417,-26.7925167,-371.1513215
5145,5722,0.0506279,0.0021847999999999998,826.171417,-31.6638832,-347.26974500000006
5146,5723,0.050916199999999995,0.003144255,826.171417,-36.535251599999995,-323.388153
5147,5724,0.05116285,0.004160845,826.171417,-41.406618099999996,-299.5065765
5148,5725,0.051202,0.0048956,826.171417,-46.277984599999996,-275.625
5149,5726,0.05136135,0.005693985,826.171417,-51.14935299999999,-251.743416
5150,5727,0.05132395,0.00637568,826.171417,-56.0207195,-227.86183949999997
5151,5728,0.05141654999999999,0.007115895,826.171417,-60.89208599999999,-203.98026249999998
5152,5729,0.0513526,0.007894,826.171417,-65.7634525,-180.09868600000001
5153,5730,0.05134875,0.00874248,826.171417,-70.634819,-156.2171095
5154,5731,0.051189349999999995,0.009769449999999999,826.171417,-75.50618739999999,-132.335529
5155,5732,0.0509515,0.0109148,826.171417,-80.377552,-108.45394885000002
5156,5733,0.05036185,0.012331000000000002,826.171417,-85.2489166,-84.5723686
5157,5734,0.049638550000000004,0.01402085,826.171417,-90.120285,-60.69078825
5158,5735,0.043608549999999996,-0.011848000000000001,801.4857175,-2.43568468,-490.559204
5159,5736,0.042855500000000005,-0.009993895,801.4857175,-7.307051179999999,-466.67762749999997
5160,5737,0.0443824,-0.00623286,801.4857175,-12.1784177,-442.796051
5161,5738,0.045543150000000004,-0.0040573499999999995,801.4857175,-17.049784199999998,-418.9144745
5162,5739,0.04689955,-0.00185575,801.4857175,-21.9211502,-395.032898
5163,5740,0.0478321,-7.028625e-05,801.4857175,-26.7925167,-371.1513215
5164,5741,0.04862685,0.00136105,801.4857175,-31.6638832,-347.26974500000006
5165,5742,0.04923475,0.002722965,801.4857175,-36.535251599999995,-323.388153
5166,5743,0.049618800000000005,0.003733795,801.4857175,-41.406618099999996,-299.5065765
5167,5744,0.049970099999999996,0.00478126,801.4857175,-46.277984599999996,-275.625
5168,5745,0.05011884999999999,0.00561731,801.4857175,-51.14935299999999,-251.743416
5169,5746,0.050285250000000004,0.00651817,801.4857175,-56.0207195,-227.86183949999997
5170,5747,0.05029865,0.00737587,801.4857175,-60.89208599999999,-203.98026249999998
5171,5748,0.0503131,0.00831667,801.4857175,-65.7634525,-180.09868600000001
5172,5749,0.05020975,0.009375385,801.4857175,-70.634819,-156.2171095
5173,5750,0.0500395,0.010552800000000001,801.4857175,-75.50618739999999,-132.335529
5174,5751,0.0497372,0.01198585,801.4857175,-80.377552,-108.45394885000002
5175,5752,0.049244949999999996,0.013572550000000001,801.4857175,-85.2489166,-84.5723686
5176,5753,0.04846145,0.015551450000000001,801.4857175,-90.120285,-60.69078825
5177,5754,0.06438764999999999,0.0103269,776.8000180000001,-2.43568468,-490.559204
5178,5755,0.0470961,0.01276565,776.8000180000001,-7.307051179999999,-466.67762749999997
5179,5756,0.04189735,0.009964404999999999,776.8000180000001,-12.1784177,-442.796051
5180,5757,0.0392133,0.0102984,776.8000180000001,-17.049784199999998,-418.9144745
5181,5758,0.03742395,0.00921291,776.8000180000001,-21.9211502,-395.032898
5182,5759,0.0364748,0.009165324999999998,776.8000180000001,-26.7925167,-371.1513215
5183,5760,0.0356485,0.008494905,776.8000180000001,-31.6638832,-347.26974500000006
5184,5761,0.03511739999999999,0.008277735,776.8000180000001,-36.535251599999995,-323.388153
5185,5762,0.0345892,0.007764855,776.8000180000001,-41.406618099999996,-299.5065765
5186,5763,0.034149,0.0074785,776.8000180000001,-46.277984599999996,-275.625
5187,5764,0.0337148,0.00706455,776.8000180000001,-51.14935299999999,-251.743416
5188,5765,0.03328405,0.00675919,776.8000180000001,-56.0207195,-227.86183949999997
5189,5766,0.032913849999999995,0.006435089999999999,776.8000180000001,-60.89208599999999,-203.98026249999998
5190,5767,0.0325215,0.00613331,776.8000180000001,-65.7634525,-180.09868600000001
5191,5768,0.032312900000000006,0.00591182,776.8000180000001,-70.634819,-156.2171095
5192,5769,0.03210765,0.0056117549999999995,776.8000180000001,-75.50618739999999,-132.335529
5193,5770,0.03237435,0.005517195,776.8000180000001,-80.377552,-108.45394885000002
5194,5771,0.0327176,0.00512116,776.8000180000001,-85.2489166,-84.5723686
5195,5772,0.03441675,0.005189845,776.8000180000001,-90.120285,-60.69078825
5196,5773,0.05160645,0.001855595,752.1142880000001,-2.43568468,-490.559204
5197,5774,0.050774299999999994,0.010164349999999999,752.1142880000001,-7.307051179999999,-466.67762749999997
5198,5775,0.04198735,0.010306300000000001,752.1142880000001,-12.1784177,-442.796051
5199,5776,0.04038335,0.009708955,752.1142880000001,-17.049784199999998,-418.9144745
5200,5777,0.0380384,0.009606075,752.1142880000001,-21.9211502,-395.032898
5201,5778,0.0372105,0.008951075,752.1142880000001,-26.7925167,-371.1513215
5202,5779,0.0362282,0.00871273,752.1142880000001,-31.6638832,-347.26974500000006
5203,5780,0.03572114999999999,0.00817609,752.1142880000001,-36.535251599999995,-323.388153
5204,5781,0.03511,0.007885115,752.1142880000001,-41.406618099999996,-299.5065765
5205,5782,0.034698450000000006,0.007446285,752.1142880000001,-46.277984599999996,-275.625
5206,5783,0.034180199999999994,0.00714294,752.1142880000001,-51.14935299999999,-251.743416
5207,5784,0.03380455,0.006783694999999999,752.1142880000001,-56.0207195,-227.86183949999997
5208,5785,0.033312049999999996,0.006479755,752.1142880000001,-60.89208599999999,-203.98026249999998
5209,5786,0.03301915,0.006193964999999999,752.1142880000001,-65.7634525,-180.09868600000001
5210,5787,0.032612749999999996,0.0058952250000000005,752.1142880000001,-70.634819,-156.2171095
5211,5788,0.032618549999999996,0.00569267,752.1142880000001,-75.50618739999999,-132.335529
5212,5789,0.0325477,0.005409535,752.1142880000001,-80.377552,-108.45394885000002
5213,5790,0.0335182,0.005299825,752.1142880000001,-85.2489166,-84.5723686
5214,5791,0.034449350000000004,0.00511057,752.1142880000001,-90.120285,-60.69078825
5215,5792,0.044062199999999996,0.0006787115,727.4285580000001,-2.43568468,-490.559204
5216,5793,0.04415315,0.00457161,727.4285580000001,-7.307051179999999,-466.67762749999997
5217,5794,0.04362485,0.008775660000000001,727.4285580000001,-12.1784177,-442.796051
5218,5795,0.0395417,0.008927504999999999,727.4285580000001,-17.049784199999998,-418.9144745
5219,5796,0.03907415,0.009050255,727.4285580000001,-21.9211502,-395.032898
5220,5797,0.03738215,0.00882405,727.4285580000001,-26.7925167,-371.1513215
5221,5798,0.03698125,0.008454139999999999,727.4285580000001,-31.6638832,-347.26974500000006
5222,5799,0.0360789,0.00815072,727.4285580000001,-36.535251599999995,-323.388153
5223,5800,0.0357187,0.007752325,727.4285580000001,-41.406618099999996,-299.5065765
5224,5801,0.035079700000000005,0.007452605,727.4285580000001,-46.277984599999996,-275.625
5225,5802,0.0347334,0.0071014649999999995,727.4285580000001,-51.14935299999999,-251.743416
5226,5803,0.03417765,0.006814335,727.4285580000001,-56.0207195,-227.86183949999997
5227,5804,0.033866850000000004,0.006515,727.4285580000001,-60.89208599999999,-203.98026249999998
5228,5805,0.03336955,0.006241795,727.4285580000001,-65.7634525,-180.09868600000001
5229,5806,0.033219,0.006005095,727.4285580000001,-70.634819,-156.2171095
5230,5807,0.0329306,0.0057982,727.4285580000001,-75.50618739999999,-132.335529
5231,5808,0.0333398,0.00568112,727.4285580000001,-80.377552,-108.45394885000002
5232,5809,0.0338092,0.00578895,727.4285580000001,-85.2489166,-84.5723686
5233,5810,0.0359111,0.005960745,727.4285580000001,-90.120285,-60.69078825
5234,5811,0.039998599999999995,-0.000898546,702.7428585,-2.43568468,-490.559204
5235,5812,0.04027485,0.003399195,702.7428585,-7.307051179999999,-466.67762749999997
5236,5813,0.03998865,0.005597065,702.7428585,-12.1784177,-442.796051
5237,5814,0.040156300000000006,0.00791968,702.7428585,-17.049784199999998,-418.9144745
5238,5815,0.0382179,0.008044795,702.7428585,-21.9211502,-395.032898
5239,5816,0.03812405,0.00830146,702.7428585,-26.7925167,-371.1513215
5240,5817,0.03693795,0.00805885,702.7428585,-31.6638832,-347.26974500000006
5241,5818,0.0366885,0.007860505,702.7428585,-36.535251599999995,-323.388153
5242,5819,0.035902050000000005,0.00758611,702.7428585,-41.406618099999996,-299.5065765
5243,5820,0.03561325,0.007318435,702.7428585,-46.277984599999996,-275.625
5244,5821,0.0349998,0.00706856,702.7428585,-51.14935299999999,-251.743416
5245,5822,0.03471665,0.006814425,702.7428585,-56.0207195,-227.86183949999997
5246,5823,0.03418555,0.00658892,702.7428585,-60.89208599999999,-203.98026249999998
5247,5824,0.033975849999999995,0.00637221,702.7428585,-65.7634525,-180.09868600000001
5248,5825,0.03356970000000001,0.006211815000000001,702.7428585,-70.634819,-156.2171095
5249,5826,0.033634250000000004,0.0061090450000000004,702.7428585,-75.50618739999999,-132.335529
5250,5827,0.033687499999999995,0.00624543,702.7428585,-80.377552,-108.45394885000002
5251,5828,0.03457235,0.006522725,702.7428585,-85.2489166,-84.5723686
5252,5829,0.03627710000000001,0.007801015,702.7428585,-90.120285,-60.69078825
5253,5830,0.0355847,-0.001632315,678.057159,-2.43568468,-490.559204
5254,5831,0.03705855,0.001574855,678.057159,-7.307051179999999,-466.67762749999997
5255,5832,0.037977899999999995,0.004655885,678.057159,-12.1784177,-442.796051
5256,5833,0.0379906,0.00587589,678.057159,-17.049784199999998,-418.9144745
5257,5834,0.03840475,0.00724898,678.057159,-21.9211502,-395.032898
5258,5835,0.0373858,0.00728965,678.057159,-26.7925167,-371.1513215
5259,5836,0.037351100000000005,0.0075442700000000005,678.057159,-31.6638832,-347.26974500000006
5260,5837,0.03650105,0.00736939,678.057159,-36.535251599999995,-323.388153
5261,5838,0.03630735,0.00730424,678.057159,-41.406618099999996,-299.5065765
5262,5839,0.03565275,0.007126695,678.057159,-46.277984599999996,-275.625
5263,5840,0.0354279,0.006990275,678.057159,-51.14935299999999,-251.743416
5264,5841,0.034893549999999995,0.00684075,678.057159,-56.0207195,-227.86183949999997
5265,5842,0.0346962,0.006703145,678.057159,-60.89208599999999,-203.98026249999998
5266,5843,0.034258849999999993,0.00660508,678.057159,-65.7634525,-180.09868600000001
5267,5844,0.034176,0.00653539,678.057159,-70.634819,-156.2171095
5268,5845,0.0339547,0.0066326,678.057159,-75.50618739999999,-132.335529
5269,5846,0.03420405,0.00687352,678.057159,-80.377552,-108.45394885000002
5270,5847,0.03477475,0.0076922499999999994,678.057159,-85.2489166,-84.5723686
5271,5848,0.03582855,0.00898689,678.057159,-90.120285,-60.69078825
5272,5849,0.0324639,-0.002462775,653.371429,-2.43568468,-490.559204
5273,5850,0.033813750000000004,0.0008675705,653.371429,-7.307051179999999,-466.67762749999997
5274,5851,0.03562735,0.00300459,653.371429,-12.1784177,-442.796051
5275,5852,0.03681215,0.0050335250000000005,653.371429,-17.049784199999998,-418.9144745
5276,5853,0.0369416,0.005651545,653.371429,-21.9211502,-395.032898
5277,5854,0.037238400000000005,0.0065442750000000004,653.371429,-26.7925167,-371.1513215
5278,5855,0.03663645,0.006610945,653.371429,-31.6638832,-347.26974500000006
5279,5856,0.036595100000000005,0.006891405,653.371429,-36.535251599999995,-323.388153
5280,5857,0.0359872,0.00685135,653.371429,-41.406618099999996,-299.5065765
5281,5858,0.035850549999999995,0.00691918,653.371429,-46.277984599999996,-275.625
5282,5859,0.0353458,0.00688247,653.371429,-51.14935299999999,-251.743416
5283,5860,0.03520435,0.006887725,653.371429,-56.0207195,-227.86183949999997
5284,5861,0.0347953,0.00688718,653.371429,-60.89208599999999,-203.98026249999998
5285,5862,0.03469585,0.006906035,653.371429,-65.7634525,-180.09868600000001
5286,5863,0.03439445,0.00701948,653.371429,-70.634819,-156.2171095
5287,5864,0.0343976,0.0072098,653.371429,-75.50618739999999,-132.335529
5288,5865,0.03433725,0.00770394,653.371429,-80.377552,-108.45394885000002
5289,5866,0.0345856,0.0085787,653.371429,-85.2489166,-84.5723686
5290,5867,0.0353431,0.01009562,653.371429,-90.120285,-60.69078825
5291,5868,0.02871125,-0.003133965,628.685699,-2.43568468,-490.559204
5292,5869,0.03131025,-0.00011501979999999999,628.685699,-7.307051179999999,-466.67762749999997
5293,5870,0.033517399999999996,0.002249285,628.685699,-12.1784177,-442.796051
5294,5871,0.035089499999999996,0.003382205,628.685699,-17.049784199999998,-418.9144745
5295,5872,0.03585814999999999,0.00474862,628.685699,-21.9211502,-395.032898
5296,5873,0.03598695,0.005212005,628.685699,-26.7925167,-371.1513215
5297,5874,0.0361741,0.005926845,628.685699,-31.6638832,-347.26974500000006
5298,5875,0.035814849999999995,0.006122984999999999,628.685699,-36.535251599999995,-323.388153
5299,5876,0.0358112,0.00648113,628.685699,-41.406618099999996,-299.5065765
5300,5877,0.0354087,0.006607435,628.685699,-46.277984599999996,-275.625
5301,5878,0.0353555,0.006816265,628.685699,-51.14935299999999,-251.743416
5302,5879,0.035016099999999994,0.006947505,628.685699,-56.0207195,-227.86183949999997
5303,5880,0.03496695,0.0071144350000000006,628.685699,-60.89208599999999,-203.98026249999998
5304,5881,0.034703200000000003,0.007311765,628.685699,-65.7634525,-180.09868600000001
5305,5882,0.03467325,0.007544895,628.685699,-70.634819,-156.2171095
5306,5883,0.03446975,0.007939475000000001,628.685699,-75.50618739999999,-132.335529
5307,5884,0.0344421,0.008500404999999999,628.685699,-80.377552,-108.45394885000002
5308,5885,0.0342384,0.009374685,628.685699,-85.2489166,-84.5723686
5309,5886,0.0344274,0.0109753,628.685699,-90.120285,-60.69078825
5310,5887,0.025653299999999997,-0.0036903100000000005,604.0,-2.43568468,-490.559204
5311,5888,0.028750199999999997,-0.0008291815,604.0,-7.307051179999999,-466.67762749999997
5312,5889,0.03178355,0.000686909,604.0,-12.1784177,-442.796051
5313,5890,0.03312065,0.0023307049999999998,604.0,-17.049784199999998,-418.9144745
5314,5891,0.0342287,0.003246035,604.0,-21.9211502,-395.032898
5315,5892,0.03475475,0.004352565,604.0,-26.7925167,-371.1513215
5316,5893,0.034911899999999996,0.004894375,604.0,-31.6638832,-347.26974500000006
5317,5894,0.0351186,0.005597115,604.0,-36.535251599999995,-323.388153
5318,5895,0.03495275,0.00595089,604.0,-41.406618099999996,-299.5065765
5319,5896,0.035033049999999996,0.006412605,604.0,-46.277984599999996,-275.625
5320,5897,0.034819100000000006,0.006705755,604.0,-51.14935299999999,-251.743416
5321,5898,0.0348552,0.0070607050000000005,604.0,-56.0207195,-227.86183949999997
5322,5899,0.03467775,0.007378315,604.0,-60.89208599999999,-203.98026249999998
5323,5900,0.034697099999999995,0.007733535,604.0,-65.7634525,-180.09868600000001
5324,5901,0.03455275,0.008170095,604.0,-70.634819,-156.2171095
5325,5902,0.03452255,0.008667874999999998,604.0,-75.50618739999999,-132.335529
5326,5903,0.03427525,0.00935784,604.0,-80.377552,-108.45394885000002
5327,5904,0.0341104,0.0102814,604.0,-85.2489166,-84.5723686
5328,5905,0.033374,0.0114145,604.0,-90.120285,-60.69078825
5329,5906,0.022679199999999997,-0.00477191,579.314301,-2.43568468,-490.559204
5330,5907,0.0272103,-0.00253357,579.314301,-7.307051179999999,-466.67762749999997
5331,5908,0.0290779,-0.0006752175,579.314301,-12.1784177,-442.796051
5332,5909,0.031164450000000003,0.000796755,579.314301,-17.049784199999998,-418.9144745
5333,5910,0.032193,0.00223746,579.314301,-21.9211502,-395.032898
5334,5911,0.0330458,0.0032183000000000003,579.314301,-26.7925167,-371.1513215
5335,5912,0.033602099999999996,0.004272325,579.314301,-31.6638832,-347.26974500000006
5336,5913,0.033846,0.0049220800000000006,579.314301,-36.535251599999995,-323.388153
5337,5914,0.03414475,0.0056659499999999995,579.314301,-41.406618099999996,-299.5065765
5338,5915,0.03414995,0.006148375,579.314301,-46.277984599999996,-275.625
5339,5916,0.0343122,0.00670842,579.314301,-51.14935299999999,-251.743416
5340,5917,0.0342571,0.007152985000000001,579.314301,-56.0207195,-227.86183949999997
5341,5918,0.03434860000000001,0.007654640000000001,579.314301,-60.89208599999999,-203.98026249999998
5342,5919,0.034295599999999996,0.008172539999999999,579.314301,-65.7634525,-180.09868600000001
5343,5920,0.03432665,0.008741200000000001,579.314301,-70.634819,-156.2171095
5344,5921,0.034236199999999994,0.009445849999999999,579.314301,-75.50618739999999,-132.335529
5345,5922,0.0341317,0.0102209,579.314301,-80.377552,-108.45394885000002
5346,5923,0.033744500000000004,0.011215300000000001,579.314301,-85.2489166,-84.5723686
5347,5924,0.03339115,0.0123908,579.314301,-90.120285,-60.69078825
5348,5925,0.0217324,-0.006609745,554.6285710000001,-2.43568468,-490.559204
5349,5926,0.0241853,-0.00458749,554.6285710000001,-7.307051179999999,-466.67762749999997
5350,5927,0.02667755,-0.00214514,554.6285710000001,-12.1784177,-442.796051
5351,5928,0.0284781,-0.000333602,554.6285710000001,-17.049784199999998,-418.9144745
5352,5929,0.0300317,0.001204625,554.6285710000001,-21.9211502,-395.032898
5353,5930,0.031168849999999998,0.002618835,554.6285710000001,-26.7925167,-371.1513215
5354,5931,0.03196575,0.0036200599999999996,554.6285710000001,-31.6638832,-347.26974500000006
5355,5932,0.03263355,0.004655879999999999,554.6285710000001,-36.535251599999995,-323.388153
5356,5933,0.03298229999999999,0.005345330000000001,554.6285710000001,-41.406618099999996,-299.5065765
5357,5934,0.033347,0.006108575,554.6285710000001,-46.277984599999996,-275.625
5358,5935,0.033476099999999995,0.00666685,554.6285710000001,-51.14935299999999,-251.743416
5359,5936,0.033659350000000005,0.007297245,554.6285710000001,-56.0207195,-227.86183949999997
5360,5937,0.033697950000000004,0.00787274,554.6285710000001,-60.89208599999999,-203.98026249999998
5361,5938,0.033771199999999994,0.008515720000000001,554.6285710000001,-65.7634525,-180.09868600000001
5362,5939,0.0337701,0.009244095,554.6285710000001,-70.634819,-156.2171095
5363,5940,0.0337439,0.01004455,554.6285710000001,-75.50618739999999,-132.335529
5364,5941,0.033673100000000004,0.01105615,554.6285710000001,-80.377552,-108.45394885000002
5365,5942,0.033463900000000005,0.012121449999999999,554.6285710000001,-85.2489166,-84.5723686
5366,5943,0.03316715,0.0135452,554.6285710000001,-90.120285,-60.69078825
5367,5944,0.04373205000000001,0.006632865,529.942841,-2.43568468,-490.559204
5368,5945,0.02997525,0.008931135,529.942841,-7.307051179999999,-466.67762749999997
5369,5946,0.0254826,0.00742212,529.942841,-12.1784177,-442.796051
5370,5947,0.023461799999999998,0.008091250000000001,529.942841,-17.049784199999998,-418.9144745
5371,5948,0.02195045,0.007722815,529.942841,-21.9211502,-395.032898
5372,5949,0.021378299999999996,0.00803016,529.942841,-26.7925167,-371.1513215
5373,5950,0.0207407,0.007864445000000001,529.942841,-31.6638832,-347.26974500000006
5374,5951,0.02049125,0.007971505,529.942841,-36.535251599999995,-323.388153
5375,5952,0.020121299999999998,0.0078316,529.942841,-41.406618099999996,-299.5065765
5376,5953,0.019938249999999998,0.00783485,529.942841,-46.277984599999996,-275.625
5377,5954,0.019668450000000004,0.007705915,529.942841,-51.14935299999999,-251.743416
5378,5955,0.01952315,0.00767649,529.942841,-56.0207195,-227.86183949999997
5379,5956,0.019356699999999998,0.00758583,529.942841,-60.89208599999999,-203.98026249999998
5380,5957,0.019310050000000002,0.007573365,529.942841,-65.7634525,-180.09868600000001
5381,5958,0.0193585,0.00756127,529.942841,-70.634819,-156.2171095
5382,5959,0.01953565,0.007584975000000001,529.942841,-75.50618739999999,-132.335529
5383,5960,0.0200541,0.0076939,529.942841,-80.377552,-108.45394885000002
5384,5961,0.02065015,0.007683290000000001,529.942841,-85.2489166,-84.5723686
5385,5962,0.022323299999999997,0.007959795,529.942841,-90.120285,-60.69078825
5386,5963,0.03380035,0.000835679,505.25712599999997,-2.43568468,-490.559204
5387,5964,0.03207425,0.007536295,505.25712599999997,-7.307051179999999,-466.67762749999997
5388,5965,0.025415700000000003,0.008054115,505.25712599999997,-12.1784177,-442.796051
5389,5966,0.02395,0.008020929999999999,505.25712599999997,-17.049784199999998,-418.9144745
5390,5967,0.02236775,0.008277505000000001,505.25712599999997,-21.9211502,-395.032898
5391,5968,0.021669849999999997,0.008120525,505.25712599999997,-26.7925167,-371.1513215
5392,5969,0.02110765,0.00820353,505.25712599999997,-31.6638832,-347.26974500000006
5393,5970,0.0207117,0.008042775,505.25712599999997,-36.535251599999995,-323.388153
5394,5971,0.0204024,0.00802404,505.25712599999997,-41.406618099999996,-299.5065765
5395,5972,0.02010175,0.00786447,505.25712599999997,-46.277984599999996,-275.625
5396,5973,0.01986305,0.00780396,505.25712599999997,-51.14935299999999,-251.743416
5397,5974,0.0196184,0.007664155000000001,505.25712599999997,-56.0207195,-227.86183949999997
5398,5975,0.0194379,0.0076054,505.25712599999997,-60.89208599999999,-203.98026249999998
5399,5976,0.01931215,0.0075112849999999995,505.25712599999997,-65.7634525,-180.09868600000001
5400,5977,0.0192694,0.007486415,505.25712599999997,-70.634819,-156.2171095
5401,5978,0.019451999999999997,0.00746967,505.25712599999997,-75.50618739999999,-132.335529
5402,5979,0.019736200000000002,0.007497765,505.25712599999997,-80.377552,-108.45394885000002
5403,5980,0.02070065,0.00758313,505.25712599999997,-85.2489166,-84.5723686
5404,5981,0.02179975,0.00772118,505.25712599999997,-90.120285,-60.69078825
5405,5982,0.02745315,0.00020801585000000003,480.5714264999999,-2.43568468,-490.559204
5406,5983,0.0264683,0.00376693,480.5714264999999,-7.307051179999999,-466.67762749999997
5407,5984,0.02604765,0.007308715,480.5714264999999,-12.1784177,-442.796051
5408,5985,0.02311785,0.0077814749999999995,480.5714264999999,-17.049784199999998,-418.9144745
5409,5986,0.0228115,0.008208665,480.5714264999999,-21.9211502,-395.032898
5410,5987,0.02176335,0.00830187,480.5714264999999,-26.7925167,-371.1513215
5411,5988,0.021469750000000003,0.008261605,480.5714264999999,-31.6638832,-347.26974500000006
5412,5989,0.02095325,0.008213129999999999,480.5714264999999,-36.535251599999995,-323.388153
5413,5990,0.02066865,0.008063205,480.5714264999999,-41.406618099999996,-299.5065765
5414,5991,0.02031585,0.00796557,480.5714264999999,-46.277984599999996,-275.625
5415,5992,0.020039550000000003,0.007799044999999999,480.5714264999999,-51.14935299999999,-251.743416
5416,5993,0.01975905,0.007699625,480.5714264999999,-56.0207195,-227.86183949999997
5417,5994,0.0195326,0.00755391,480.5714264999999,-60.89208599999999,-203.98026249999998
5418,5995,0.019352849999999998,0.007490405,480.5714264999999,-65.7634525,-180.09868600000001
5419,5996,0.0193079,0.007400024999999999,480.5714264999999,-70.634819,-156.2171095
5420,5997,0.01939505,0.00743712,480.5714264999999,-75.50618739999999,-132.335529
5421,5998,0.01987095,0.00746388,480.5714264999999,-80.377552,-108.45394885000002
5422,5999,0.020719349999999997,0.007793325,480.5714264999999,-85.2489166,-84.5723686
5423,6000,0.02259725,0.00808215,480.5714264999999,-90.120285,-60.69078825
5424,6001,0.023585750000000003,-0.0007726359999999999,455.88571199999996,-2.43568468,-490.559204
5425,6002,0.0231083,0.003106305,455.88571199999996,-7.307051179999999,-466.67762749999997
5426,6003,0.022635,0.0052502799999999995,455.88571199999996,-12.1784177,-442.796051
5427,6004,0.023167200000000002,0.0073883,455.88571199999996,-17.049784199999998,-418.9144745
5428,6005,0.021972949999999998,0.00779075,455.88571199999996,-21.9211502,-395.032898
5429,6006,0.022106849999999997,0.00824133,455.88571199999996,-26.7925167,-371.1513215
5430,6007,0.0214233,0.008235465,455.88571199999996,-31.6638832,-347.26974500000006
5431,6008,0.0212784,0.00821953,455.88571199999996,-36.535251599999995,-323.388153
5432,6009,0.02081055,0.008102965,455.88571199999996,-41.406618099999996,-299.5065765
5433,6010,0.020565100000000003,0.007962065,455.88571199999996,-46.277984599999996,-275.625
5434,6011,0.0202015,0.007833005,455.88571199999996,-51.14935299999999,-251.743416
5435,6012,0.019943000000000002,0.007674095,455.88571199999996,-56.0207195,-227.86183949999997
5436,6013,0.019671,0.0075774399999999995,455.88571199999996,-60.89208599999999,-203.98026249999998
5437,6014,0.019493299999999998,0.007449035,455.88571199999996,-65.7634525,-180.09868600000001
5438,6015,0.019420800000000002,0.007456365,455.88571199999996,-70.634819,-156.2171095
5439,6016,0.01955295,0.00743827,455.88571199999996,-75.50618739999999,-132.335529
5440,6017,0.0200594,0.007748835,455.88571199999996,-80.377552,-108.45394885000002
5441,6018,0.021060500000000003,0.008058545,455.88571199999996,-85.2489166,-84.5723686
5442,6019,0.0233186,0.00931295,455.88571199999996,-90.120285,-60.69078825
5443,6020,0.0196409,-0.0011445995,431.199997,-2.43568468,-490.559204
5444,6021,0.01990545,0.001922085,431.199997,-7.307051179999999,-466.67762749999997
5445,6022,0.020786449999999998,0.004839465,431.199997,-12.1784177,-442.796051
5446,6023,0.0210272,0.006188155000000001,431.199997,-17.049784199999998,-418.9144745
5447,6024,0.0219112,0.0075680850000000004,431.199997,-21.9211502,-395.032898
5448,6025,0.0214462,0.00781513,431.199997,-26.7925167,-371.1513215
5449,6026,0.0216559,0.00814649,431.199997,-31.6638832,-347.26974500000006
5450,6027,0.021172049999999998,0.008079369999999999,431.199997,-36.535251599999995,-323.388153
5451,6028,0.02105405,0.008057115,431.199997,-41.406618099999996,-299.5065765
5452,6029,0.0206427,0.007928095,431.199997,-46.277984599999996,-275.625
5453,6030,0.0204216,0.007809430000000001,431.199997,-51.14935299999999,-251.743416
5454,6031,0.0200959,0.007698165,431.199997,-56.0207195,-227.86183949999997
5455,6032,0.019878450000000002,0.007573865,431.199997,-60.89208599999999,-203.98026249999998
5456,6033,0.01969535,0.007543395,431.199997,-65.7634525,-180.09868600000001
5457,6034,0.01961695,0.007490210000000001,431.199997,-70.634819,-156.2171095
5458,6035,0.01981025,0.00770298,431.199997,-75.50618739999999,-132.335529
5459,6036,0.02022525,0.00792374,431.199997,-80.377552,-108.45394885000002
5460,6037,0.0214728,0.00879545,431.199997,-85.2489166,-84.5723686
5461,6038,0.0231409,0.009869335,431.199997,-90.120285,-60.69078825
5462,6039,0.016426750000000004,-0.001564765,406.514282,-2.43568468,-490.559204
5463,6040,0.016928649999999996,0.001675275,406.514282,-7.307051179999999,-466.67762749999997
5464,6041,0.01834595,0.0038783800000000003,406.514282,-12.1784177,-442.796051
5465,6042,0.01999035,0.005960490000000001,406.514282,-17.049784199999998,-418.9144745
5466,6043,0.020549650000000003,0.006752475,406.514282,-21.9211502,-395.032898
5467,6044,0.02134335,0.00761812,406.514282,-26.7925167,-371.1513215
5468,6045,0.021131399999999998,0.00772732,406.514282,-31.6638832,-347.26974500000006
5469,6046,0.021271200000000004,0.00794223,406.514282,-36.535251599999995,-323.388153
5470,6047,0.020909950000000004,0.007871015,406.514282,-41.406618099999996,-299.5065765
5471,6048,0.020802099999999997,0.007861509999999999,406.514282,-46.277984599999996,-275.625
5472,6049,0.02047425,0.007771195,406.514282,-51.14935299999999,-251.743416
5473,6050,0.02029975,0.007702545,406.514282,-56.0207195,-227.86183949999997
5474,6051,0.0200698,0.007660419999999999,406.514282,-60.89208599999999,-203.98026249999998
5475,6052,0.019924700000000004,0.007614845,406.514282,-65.7634525,-180.09868600000001
5476,6053,0.019913849999999997,0.00773016,406.514282,-70.634819,-156.2171095
5477,6054,0.019963349999999998,0.00784731,406.514282,-75.50618739999999,-132.335529
5478,6055,0.020535949999999997,0.008409900000000001,406.514282,-80.377552,-108.45394885000002
5479,6056,0.021293649999999997,0.009094040000000001,406.514282,-85.2489166,-84.5723686
5480,6057,0.0231362,0.01055165,406.514282,-90.120285,-60.69078825
5481,6058,0.0131018,-0.0017723,381.82856749999996,-2.43568468,-490.559204
5482,6059,0.01415705,0.00117477,381.82856749999996,-7.307051179999999,-466.67762749999997
5483,6060,0.016446000000000002,0.003800715,381.82856749999996,-12.1784177,-442.796051
5484,6061,0.01832485,0.00518331,381.82856749999996,-17.049784199999998,-418.9144745
5485,6062,0.01987615,0.0065298249999999995,381.82856749999996,-21.9211502,-395.032898
5486,6063,0.02038235,0.006945105,381.82856749999996,-26.7925167,-371.1513215
5487,6064,0.020911,0.00747663,381.82856749999996,-31.6638832,-347.26974500000006
5488,6065,0.02079105,0.007544685000000001,381.82856749999996,-36.535251599999995,-323.388153
5489,6066,0.0208792,0.00771487,381.82856749999996,-41.406618099999996,-299.5065765
5490,6067,0.02063355,0.00769652,381.82856749999996,-46.277984599999996,-275.625
5491,6068,0.02057135,0.007737805,381.82856749999996,-51.14935299999999,-251.743416
5492,6069,0.020362650000000003,0.007728545,381.82856749999996,-56.0207195,-227.86183949999997
5493,6070,0.02026555,0.007745995,381.82856749999996,-60.89208599999999,-203.98026249999998
5494,6071,0.020177350000000004,0.007820785,381.82856749999996,-65.7634525,-180.09868600000001
5495,6072,0.0201159,0.00790941,381.82856749999996,-70.634819,-156.2171095
5496,6073,0.020307099999999998,0.008234535,381.82856749999996,-75.50618739999999,-132.335529
5497,6074,0.020449500000000002,0.00861101,381.82856749999996,-80.377552,-108.45394885000002
5498,6075,0.0213442,0.009573235,381.82856749999996,-85.2489166,-84.5723686
5499,6076,0.022522649999999998,0.01077185,381.82856749999996,-90.120285,-60.69078825
5500,6077,0.009806885000000001,-0.002063955,357.142853,-2.43568468,-490.559204
5501,6078,0.0114572,0.0012772349999999998,357.142853,-7.307051179999999,-466.67762749999997
5502,6079,0.014543400000000001,0.00328114,357.142853,-12.1784177,-442.796051
5503,6080,0.017120999999999997,0.005049805,357.142853,-17.049784199999998,-418.9144745
5504,6081,0.0186677,0.005781425,357.142853,-21.9211502,-395.032898
5505,6082,0.01969125,0.00659478,357.142853,-26.7925167,-371.1513215
5506,6083,0.02006425,0.00687778,357.142853,-31.6638832,-347.26974500000006
5507,6084,0.0204317,0.00727014,357.142853,-36.535251599999995,-323.388153
5508,6085,0.02039735,0.007383995,357.142853,-41.406618099999996,-299.5065765
5509,6086,0.020510399999999998,0.0075823850000000005,357.142853,-46.277984599999996,-275.625
5510,6087,0.02039925,0.007654765,357.142853,-51.14935299999999,-251.743416
5511,6088,0.020423550000000002,0.00778287,357.142853,-56.0207195,-227.86183949999997
5512,6089,0.02035865,0.007884434999999999,357.142853,-60.89208599999999,-203.98026249999998
5513,6090,0.02035705,0.00802526,357.142853,-65.7634525,-180.09868600000001
5514,6091,0.02041655,0.008246475,357.142853,-70.634819,-156.2171095
5515,6092,0.02041505,0.0085134,357.142853,-75.50618739999999,-132.335529
5516,6093,0.020740550000000003,0.009050260000000001,357.142853,-80.377552,-108.45394885000002
5517,6094,0.020873549999999998,0.009674295,357.142853,-85.2489166,-84.5723686
5518,6095,0.0221666,0.01107775,357.142853,-90.120285,-60.69078825
5519,6096,0.006461205,-0.001983915,332.457138,-2.43568468,-490.559204
5520,6097,0.00887436,0.0009802315,332.457138,-7.307051179999999,-466.67762749999997
5521,6098,0.0129206,0.003356845,332.457138,-12.1784177,-442.796051
5522,6099,0.01581255,0.00433549,332.457138,-17.049784199999998,-418.9144745
5523,6100,0.017447400000000002,0.00533793,332.457138,-21.9211502,-395.032898
5524,6101,0.01852575,0.00587087,332.457138,-26.7925167,-371.1513215
5525,6102,0.019262599999999998,0.00647929,332.457138,-31.6638832,-347.26974500000006
5526,6103,0.01959955,0.00678316,332.457138,-36.535251599999995,-323.388153
5527,6104,0.0199581,0.007168635,332.457138,-41.406618099999996,-299.5065765
5528,6105,0.0200389,0.00736853,332.457138,-46.277984599999996,-275.625
5529,6106,0.02023605,0.007639385,332.457138,-51.14935299999999,-251.743416
5530,6107,0.0202697,0.00781842,332.457138,-56.0207195,-227.86183949999997
5531,6108,0.0204028,0.008059845,332.457138,-60.89208599999999,-203.98026249999998
5532,6109,0.02047835,0.0082872,332.457138,-65.7634525,-180.09868600000001
5533,6110,0.0205755,0.00858194,332.457138,-70.634819,-156.2171095
5534,6111,0.02073655,0.00894675,332.457138,-75.50618739999999,-132.335529
5535,6112,0.020761850000000002,0.009399905,332.457138,-80.377552,-108.45394885000002
5536,6113,0.02112475,0.0100869,332.457138,-85.2489166,-84.5723686
5537,6114,0.0211289,0.0108619,332.457138,-90.120285,-60.69078825
5538,6115,0.004480929999999999,-0.002434865,307.771423,-2.43568468,-490.559204
5539,6116,0.006613575,0.00143459,307.771423,-7.307051179999999,-466.67762749999997
5540,6117,0.011569200000000002,0.0026379999999999997,307.771423,-12.1784177,-442.796051
5541,6118,0.013993349999999998,0.00373228,307.771423,-17.049784199999998,-418.9144745
5542,6119,0.01596415,0.0045491049999999995,307.771423,-21.9211502,-395.032898
5543,6120,0.01721795,0.00535354,307.771423,-26.7925167,-371.1513215
5544,6121,0.018088399999999998,0.00589658,307.771423,-31.6638832,-347.26974500000006
5545,6122,0.018796099999999996,0.006482195,307.771423,-36.535251599999995,-323.388153
5546,6123,0.0191838,0.006848905,307.771423,-41.406618099999996,-299.5065765
5547,6124,0.01961235,0.007279515,307.771423,-46.277984599999996,-275.625
5548,6125,0.0198141,0.007565655,307.771423,-51.14935299999999,-251.743416
5549,6126,0.020110300000000005,0.007923975,307.771423,-56.0207195,-227.86183949999997
5550,6127,0.02027255,0.008210365,307.771423,-60.89208599999999,-203.98026249999998
5551,6128,0.02051685,0.008581950000000001,307.771423,-65.7634525,-180.09868600000001
5552,6129,0.0207009,0.00893828,307.771423,-70.634819,-156.2171095
5553,6130,0.020912649999999998,0.009409774999999999,307.771423,-75.50618739999999,-132.335529
5554,6131,0.02111295,0.009893685,307.771423,-80.377552,-108.45394885000002
5555,6132,0.021226250000000002,0.010540899999999999,307.771423,-85.2489166,-84.5723686
5556,6133,0.02151225,0.0112412,307.771423,-90.120285,-60.69078825
5557,6134,0.00492866,-0.001471597,283.0857085,-2.43568468,-490.559204
5558,6135,0.00522486,0.0005713270000000001,283.0857085,-7.307051179999999,-466.67762749999997
5559,6136,0.00897332,0.001661255,283.0857085,-12.1784177,-442.796051
5560,6137,0.0120689,0.002896145,283.0857085,-17.049784199999998,-418.9144745
5561,6138,0.014151249999999999,0.003925375,283.0857085,-21.9211502,-395.032898
5562,6139,0.0157222,0.00476556,283.0857085,-26.7925167,-371.1513215
5563,6140,0.01695975,0.005569775,283.0857085,-31.6638832,-347.26974500000006
5564,6141,0.01778115,0.00613354,283.0857085,-36.535251599999995,-323.388153
5565,6142,0.0185344,0.00673188,283.0857085,-41.406618099999996,-299.5065765
5566,6143,0.01897935,0.00713624,283.0857085,-46.277984599999996,-275.625
5567,6144,0.019465999999999997,0.007606935,283.0857085,-51.14935299999999,-251.743416
5568,6145,0.019751949999999997,0.007958565,283.0857085,-56.0207195,-227.86183949999997
5569,6146,0.0201207,0.008399045,283.0857085,-60.89208599999999,-203.98026249999998
5570,6147,0.020370149999999997,0.008787865,283.0857085,-65.7634525,-180.09868600000001
5571,6148,0.0207241,0.009300085,283.0857085,-70.634819,-156.2171095
5572,6149,0.02098605,0.00979207,283.0857085,-75.50618739999999,-132.335529
5573,6150,0.021399599999999998,0.0104748,283.0857085,-80.377552,-108.45394885000002
5574,6151,0.021631900000000003,0.0110715,283.0857085,-85.2489166,-84.5723686
5575,6152,0.02222265,0.0120205,283.0857085,-90.120285,-60.69078825
5576,6153,0.01717955,0.0041649,258.40000150000003,-2.43568468,-490.559204
5577,6154,0.014158899999999999,0.007635444999999999,258.40000150000003,-7.307051179999999,-466.67762749999997
5578,6155,0.01370555,0.0075849,258.40000150000003,-12.1784177,-442.796051
5579,6156,0.01509715,0.008505835,258.40000150000003,-17.049784199999998,-418.9144745
5580,6157,0.014561800000000001,0.008148244999999998,258.40000150000003,-21.9211502,-395.032898
5581,6158,0.014852500000000001,0.008334715,258.40000150000003,-26.7925167,-371.1513215
5582,6159,0.01459955,0.00817064,258.40000150000003,-31.6638832,-347.26974500000006
5583,6160,0.01468725,0.008230535,258.40000150000003,-36.535251599999995,-323.388153
5584,6161,0.01459715,0.00817361,258.40000150000003,-41.406618099999996,-299.5065765
5585,6162,0.01462155,0.008192275,258.40000150000003,-46.277984599999996,-275.625
5586,6163,0.0145937,0.008175315,258.40000150000003,-51.14935299999999,-251.743416
5587,6164,0.014585999999999998,0.00817384,258.40000150000003,-56.0207195,-227.86183949999997
5588,6165,0.0145903,0.0081765,258.40000150000003,-60.89208599999999,-203.98026249999998
5589,6166,0.014544250000000002,0.008153065000000001,258.40000150000003,-65.7634525,-180.09868600000001
5590,6167,0.014588100000000001,0.008178045,258.40000150000003,-70.634819,-156.2171095
5591,6168,0.0144507,0.008104759999999999,258.40000150000003,-75.50618739999999,-132.335529
5592,6169,0.01459715,0.00818845,258.40000150000003,-80.377552,-108.45394885000002
5593,6170,0.01429015,0.008027224999999999,258.40000150000003,-85.2489166,-84.5723686
5594,6171,0.015077149999999997,0.0084603,258.40000150000003,-90.120285,-60.69078825
5595,6172,0.00808996,0.0017459799999999998,233.71428650000001,-2.43568468,-490.559204
5596,6173,0.0142247,0.00764759,233.71428650000001,-7.307051179999999,-466.67762749999997
5597,6174,0.015354199999999998,0.008719425,233.71428650000001,-12.1784177,-442.796051
5598,6175,0.014902450000000001,0.008334455000000001,233.71428650000001,-17.049784199999998,-418.9144745
5599,6176,0.0147973,0.0083405,233.71428650000001,-21.9211502,-395.032898
5600,6177,0.014623549999999999,0.008190495,233.71428650000001,-26.7925167,-371.1513215
5601,6178,0.014630250000000001,0.008223285,233.71428650000001,-31.6638832,-347.26974500000006
5602,6179,0.0145891,0.008184015,233.71428650000001,-36.535251599999995,-323.388153
5603,6180,0.01459345,0.00819829,233.71428650000001,-41.406618099999996,-299.5065765
5604,6181,0.014580150000000002,0.008185695,233.71428650000001,-46.277984599999996,-275.625
5605,6182,0.014575499999999998,0.008188765,233.71428650000001,-51.14935299999999,-251.743416
5606,6183,0.0145748,0.008186315,233.71428650000001,-56.0207195,-227.86183949999997
5607,6184,0.014559,0.00818211,233.71428650000001,-60.89208599999999,-203.98026249999998
5608,6185,0.0145736,0.008187225,233.71428650000001,-65.7634525,-180.09868600000001
5609,6186,0.0145297,0.008170170000000001,233.71428650000001,-70.634819,-156.2171095
5610,6187,0.0145711,0.008184225,233.71428650000001,-75.50618739999999,-132.335529
5611,6188,0.014417300000000001,0.00811609,233.71428650000001,-80.377552,-108.45394885000002
5612,6189,0.0144584,0.008113144999999999,233.71428650000001,-85.2489166,-84.5723686
5613,6190,0.01403025,0.007918105,233.71428650000001,-90.120285,-60.69078825
5614,6191,0.003077995,0.00161732,209.028572,-2.43568468,-490.559204
5615,6192,0.01247845,0.0070379399999999995,209.028572,-7.307051179999999,-466.67762749999997
5616,6193,0.015400399999999998,0.00852267,209.028572,-12.1784177,-442.796051
5617,6194,0.01453825,0.008183204999999999,209.028572,-17.049784199999998,-418.9144745
5618,6195,0.014763849999999999,0.00825228,209.028572,-21.9211502,-395.032898
5619,6196,0.01448195,0.008140274999999999,209.028572,-26.7925167,-371.1513215
5620,6197,0.014614,0.008193805,209.028572,-31.6638832,-347.26974500000006
5621,6198,0.014539650000000001,0.008168225000000001,209.028572,-36.535251599999995,-323.388153
5622,6199,0.014591749999999999,0.00819074,209.028572,-41.406618099999996,-299.5065765
5623,6200,0.014566250000000001,0.008183485,209.028572,-46.277984599999996,-275.625
5624,6201,0.01458245,0.008190284999999999,209.028572,-51.14935299999999,-251.743416
5625,6202,0.014575049999999999,0.00819092,209.028572,-56.0207195,-227.86183949999997
5626,6203,0.01457725,0.008189945,209.028572,-60.89208599999999,-203.98026249999998
5627,6204,0.0145821,0.008199235,209.028572,-65.7634525,-180.09868600000001
5628,6205,0.014574650000000001,0.00818846,209.028572,-70.634819,-156.2171095
5629,6206,0.0145925,0.00821222,209.028572,-75.50618739999999,-132.335529
5630,6207,0.0145415,0.00816011,209.028572,-80.377552,-108.45394885000002
5631,6208,0.0145321,0.00818517,209.028572,-85.2489166,-84.5723686
5632,6209,0.01437695,0.008022109999999999,209.028572,-90.120285,-60.69078825
5633,6210,0.00990021,0.002970625,184.34285749999998,-2.4356840876332786,-490.559204
5634,6211,0.01157825,0.006572525,184.34285749999998,-7.307050825,-466.67762749999997
5635,6212,0.012485800000000002,0.00695828,184.34285749999998,-12.178417465,-442.796051
5636,6213,0.0146153,0.008149365,184.34285749999998,-17.049784199999998,-418.9144745
5637,6214,0.014170700000000001,0.007928319999999999,184.34285749999998,-21.921150675,-395.032898
5638,6215,0.014668899999999999,0.00820864,184.34285749999998,-26.792517175,-371.1513215
5639,6216,0.01445985,0.008099055,184.34285749999998,-31.663883675,-347.26974500000006
5640,6217,0.014627600000000001,0.008192584999999999,184.34285749999998,-36.535251599999995,-323.388153
5641,6218,0.01455745,0.00815659,184.34285749999998,-41.406618099999996,-299.5065765
5642,6219,0.0146139,0.00818865,184.34285749999998,-46.277984599999996,-275.625
5643,6220,0.0145955,0.00818109,184.34285749999998,-51.14935299999999,-251.743416
5644,6221,0.014606000000000001,0.008187380000000001,184.34285749999998,-56.0207195,-227.86183949999997
5645,6222,0.014618549999999998,0.00819816,184.34285749999998,-60.89208599999999,-203.98026249999998
5646,6223,0.014597599999999999,0.008185285,184.34285749999998,-65.7634525,-180.09868600000001
5647,6224,0.01465745,0.008225935,184.34285749999998,-70.634819,-156.2171095
5648,6225,0.014582649999999999,0.008177299999999998,184.34285749999998,-75.50618739999999,-132.335529
5649,6226,0.01477695,0.008301825,184.34285749999998,-80.377553925,-108.45394885000002
5650,6227,0.01464375,0.008204935,184.34285749999998,-85.248918525,-84.5723686
5651,6228,0.0154918,0.008747334999999998,184.34285749999998,-90.120285,-60.69078825
5652,6509,0.00155152,-0.000130644,159.714287,100.0139923,-12.1875
5653,6510,0.0009798950000000002,-0.0002813625,159.714287,95.04197690000001,-36.5625
5654,6511,0.00119932,-2.054354e-05,135.142857,100.0139923,-12.1875
5655,6512,0.00103009,-0.00028770049999999995,135.142857,95.04197690000001,-36.5625
5656,6513,0.0009021125,6.001085e-05,110.5714266,100.0139923,-12.1875
5657,6514,0.000827489,-0.00018582050000000001,110.5714266,95.04197690000001,-36.5625
5658,6515,0.000623859,9.919980000000001e-05,86.0,100.0139923,-12.1875
5659,6516,0.0006383945,-0.0001549165,86.0,95.04197690000001,-36.5625
5660,6517,0.000352787,0.00010594865,61.428571700000006,100.0139923,-12.1875
5661,6518,0.00046111650000000003,-0.00014311,61.428571700000006,95.04197690000001,-36.5625
5662,6519,0.0001671045,7.83046e-05,36.857142450000005,100.0139923,-12.1875
5663,6520,0.0004096865,-0.0001968925,36.857142450000005,95.04197690000001,-36.5625
5664,6521,0.00039930299999999994,1.0777629999999999e-05,12.28571415,100.0139923,-12.1875
5665,6522,0.00036034,-0.00016545900000000002,12.28571415,95.04197690000001,-36.5625
5666,6523,0.0541446,0.0005947345,1023.6571349999999,-95.0419769,-36.5625
5667,6524,0.06633695,0.0014130465,1023.6571349999999,-100.01399229999998,-12.1875
5668,6525,0.0580678,0.00205966,998.9714355,-95.0419769,-36.5625
5669,6526,0.06368715,0.005619285,998.9714355,-100.01399229999998,-12.1875
5670,6527,0.05801815,0.006014175,974.285736,-95.0419769,-36.5625
5671,6528,0.061977199999999996,0.009311025,974.285736,-100.01399229999998,-12.1875
5672,6529,0.056830149999999996,0.0085688,949.6000060000001,-95.0419769,-36.5625
5673,6530,0.060037,0.0123413,949.6000060000001,-100.01399229999998,-12.1875
5674,6531,0.05567655,0.010887850000000001,924.914276,-95.0419769,-36.5625
5675,6532,0.05751375,0.014304050000000002,924.914276,-100.01399229999998,-12.1875
5676,6533,0.053813849999999996,0.0126246,900.2285764999999,-95.0419769,-36.5625
5677,6534,0.055806449999999994,0.0161011,900.2285764999999,-100.01399229999998,-12.1875
5678,6535,0.052256050000000005,0.0141294,875.5428769999999,-95.0419769,-36.5625
5679,6536,0.05363275000000001,0.01785245,875.5428769999999,-100.01399229999998,-12.1875
5680,6537,0.0500028,0.0155643,850.8571469999999,-95.0419769,-36.5625
5681,6538,0.05187945000000001,0.0194288,850.8571469999999,-100.01399229999998,-12.1875
5682,6539,0.047322550000000005,0.01593605,826.171417,-95.0419769,-36.5625
5683,6540,0.0493122,0.021230950000000002,826.171417,-100.01399229999998,-12.1875
5684,6541,0.0471622,0.0175497,801.4857175,-95.0419769,-36.5625
5685,6542,0.0443297,0.020791650000000002,801.4857175,-100.01399229999998,-12.1875
5686,6543,0.0362655,0.004105885,776.8000180000001,-95.0419769,-36.5625
5687,6544,0.046546199999999996,0.005081225,776.8000180000001,-100.01399229999998,-12.1875
5688,6545,0.039053950000000004,0.00503369,752.1142880000001,-95.0419769,-36.5625
5689,6546,0.044768699999999995,0.00836143,752.1142880000001,-100.01399229999998,-12.1875
5690,6547,0.0394346,0.00796694,727.4285580000001,-95.0419769,-36.5625
5691,6548,0.0434803,0.01088155,727.4285580000001,-100.01399229999998,-12.1875
5692,6549,0.03862145,0.009706925,702.7428585,-95.0419769,-36.5625
5693,6550,0.0423322,0.012981049999999997,702.7428585,-100.01399229999998,-12.1875
5694,6551,0.03796094999999999,0.01127295,678.057159,-95.0419769,-36.5625
5695,6552,0.04052725,0.01424255,678.057159,-100.01399229999998,-12.1875
5696,6553,0.03666755,0.01237585,653.371429,-95.0419769,-36.5625
5697,6554,0.03943165,0.01537995,653.371429,-100.01399229999998,-12.1875
5698,6555,0.0355516,0.0132182,628.685699,-95.0419769,-36.5625
5699,6556,0.03805265,0.01647305,628.685699,-100.01399229999998,-12.1875
5700,6557,0.034031849999999995,0.01399,604.0,-95.0419769,-36.5625
5701,6558,0.03683495,0.017269899999999998,604.0,-100.01399229999998,-12.1875
5702,6559,0.0317647,0.013740249999999999,579.314301,-95.0419769,-36.5625
5703,6560,0.0354355,0.01818815,579.314301,-100.01399229999998,-12.1875
5704,6561,0.03238,0.014767,554.6285710000001,-95.0419769,-36.5625
5705,6562,0.0317216,0.0172503,554.6285710000001,-100.01399229999998,-12.1875
5706,6563,0.0237535,0.007460410000000001,529.942841,-95.0419769,-36.5625
5707,6564,0.032217300000000004,0.008500009999999999,529.942841,-100.01399229999998,-12.1875
5708,6565,0.02543335,0.007884545,505.25712599999997,-95.0419769,-36.5625
5709,6566,0.031712699999999996,0.01096665,505.25712599999997,-100.01399229999998,-12.1875
5710,6567,0.02650035,0.009956455000000001,480.5714264999999,-95.0419769,-36.5625
5711,6568,0.031058600000000002,0.012465300000000002,480.5714264999999,-100.01399229999998,-12.1875
5712,6569,0.026239,0.010939899999999999,455.88571199999996,-95.0419769,-36.5625
5713,6570,0.0306624,0.01372785,455.88571199999996,-100.01399229999998,-12.1875
5714,6571,0.026166300000000003,0.011903399999999998,431.199997,-95.0419769,-36.5625
5715,6572,0.029737649999999997,0.0143357,431.199997,-100.01399229999998,-12.1875
5716,6573,0.025516499999999998,0.01234845,406.514282,-95.0419769,-36.5625
5717,6574,0.029224049999999994,0.01492375,406.514282,-100.01399229999998,-12.1875
5718,6575,0.0251117,0.0128149,381.82856749999996,-95.0419769,-36.5625
5719,6576,0.02856295,0.01527135,381.82856749999996,-100.01399229999998,-12.1875
5720,6577,0.02424275,0.012893400000000001,357.142853,-95.0419769,-36.5625
5721,6578,0.0281405,0.015605250000000001,357.142853,-100.01399229999998,-12.1875
5722,6579,0.023496549999999998,0.012946,332.457138,-95.0419769,-36.5625
5723,6580,0.02752595,0.015650700000000003,332.457138,-100.01399229999998,-12.1875
5724,6581,0.02151335,0.01210015,307.771423,-95.0419769,-36.5625
5725,6582,0.0271579,0.0156302,307.771423,-100.01399229999998,-12.1875
5726,6583,0.02215855,0.012473,283.0857085,-95.0419769,-36.5625
5727,6584,0.02505705,0.0142444,283.0857085,-100.01399229999998,-12.1875
5728,6585,0.0153124,0.00851135,258.40000150000003,-95.0419769,-36.5625
5729,6586,0.01975345,0.010094885,258.40000150000003,-100.01399229999998,-12.1875
5730,6587,0.015178999999999998,0.008449825000000001,233.71428650000001,-95.0419769,-36.5625
5731,6588,0.020377450000000002,0.0113426,233.71428650000001,-100.01399229999998,-12.1875
5732,6589,0.0152574,0.008665195,209.028572,-95.0419769,-36.5625
5733,6590,0.0201436,0.0115999,209.028572,-100.01399229999998,-12.1875
5734,6591,0.0157997,0.008997085,184.34285749999998,-95.0419769,-36.5625
5735,6592,0.01892265,0.01077675,184.34285749999998,-100.01399229999998,-12.1875
5736,6593,0.0012205150000000001,0.000699021,159.714287,-13.2644758,100.75370025000001
5737,6594,0.001268285,0.0007270045,135.142857,-13.2644758,100.75370025000001
5738,6595,0.00124882,0.0007184089999999999,110.5714266,-13.2644758,100.75370025000001
5739,6596,0.001252095,0.0007213594999999999,86.0,-13.2644758,100.75370025000001
5740,6597,0.001254395,0.000723528,61.4285717,-13.2644758,100.75370025000001
5741,6598,0.001255745,0.000724882,36.85714245,-13.2644758,100.75370025000001
5742,6599,0.001239,0.000715114,12.28571415,-13.2644758,100.75370025000001
5743,6600,0.00119754,0.000639758,159.714287,-38.8894758,93.88750075
5744,6601,0.001230405,0.0006694655000000001,135.142857,-38.8894758,93.88750075
5745,6602,0.001199905,0.000662928,110.5714266,-38.8894758,93.88750075
5746,6603,0.00114813,0.0006488259999999999,86.0,-38.8894758,93.88750075
5747,6604,0.001153125,0.000660737,61.4285717,-38.8894758,93.88750075
5748,6605,0.0011425250000000001,0.0006581625000000001,36.85714245,-38.8894758,93.88750075
5749,6606,0.00112585,0.0006490840000000001,12.28571415,-38.8894758,93.88750075
5750,6607,0.001167825,0.000525104,159.714287,-61.86422350000001,80.623024
5751,6608,0.001180815,0.0005522725,135.142857,-61.86422350000001,80.623024
5752,6609,0.001053295,0.000528805,110.5714266,-61.86422350000001,80.623024
5753,6610,0.0010031519999999998,0.000538765,86.0,-61.86422350000001,80.623024
5754,6611,0.00093867,0.0005236780000000001,61.4285717,-61.86422350000001,80.623024
5755,6612,0.0009270155,0.000531688,36.85714245,-61.86422350000001,80.623024
5756,6613,0.0009102190000000001,0.0005219045,12.28571415,-61.86422350000001,80.623024
5757,6614,0.001166777,0.0003098355,159.714287,-80.623024,61.8642235
5758,6615,0.001057171,0.00034045599999999994,135.142857,-80.623024,61.8642235
5759,6616,0.0009336440000000001,0.00035801750000000003,110.5714266,-80.623024,61.8642235
5760,6617,0.0007432954999999999,0.0003409425,86.0,-80.623024,61.8642235
5761,6618,0.0006932990000000001,0.00036832200000000003,61.4285717,-80.623024,61.8642235
5762,6619,0.0006087255,0.00033990050000000003,36.85714245,-80.623024,61.8642235
5763,6620,0.0005910945000000001,0.0003324055,12.28571415,-80.623024,61.8642235
5764,6621,0.001246203,4.1264e-05,159.714287,-93.88750075,38.8894758
5765,6622,0.001212738,8.470195e-05,135.142857,-93.88750075,38.8894758
5766,6623,0.0008583815,5.5029e-05,110.5714266,-93.88750075,38.8894758
5767,6624,0.000553995,9.43102e-05,86.0,-93.88750075,38.8894758
5768,6625,0.0003012075,8.49178e-05,61.4285717,-93.88750075,38.8894758
5769,6626,0.00028633649999999994,0.0001512325,36.85714245,-93.88750075,38.8894758
5770,6627,0.0003081295,0.0001466875,12.28571415,-93.88750075,38.8894758
5771,6628,0.00182507,-0.0003434605,159.714287,-100.75370025000001,13.2644758
5772,6629,0.00147554,-0.0003588395,135.142857,-100.75370025000001,13.2644758
5773,6630,0.0010525665,-0.00027327199999999997,110.5714266,-100.75370025000001,13.2644758
5774,6631,0.0007470915,-0.0002705125,86.0,-100.75370025000001,13.2644758
5775,6632,0.00048465750000000005,-0.000239471,61.4285717,-100.75370025000001,13.2644758
5776,6633,0.00041832999999999996,-0.000216426,36.85714245,-100.75370025000001,13.2644758
5777,6634,0.0005836519999999999,-0.0001375905,12.28571415,-100.75370025000001,13.2644758
