,Element,S.Mises.mean,S.S12.mean,intpointx,intpointy,intpointz
0,1,0.00117233,-0.0006764920000000001,2649.333375,-13.2644758,100.75370025000001
1,2,0.00119431,-0.000689238,2626.0,-13.2644758,100.75370025000001
2,3,0.001167605,-0.0006731105,2602.666625,-13.2644758,100.75370025000001
3,4,0.00107427,-0.0006191175,2649.333375,-38.8894758,93.88750075
4,5,0.00109894,-0.0006319865,2626.0,-38.8894758,93.88750075
5,6,0.0010751250000000001,-0.000613699,2602.666625,-38.8894758,93.88750075
6,7,0.0008830795,-0.0005065905,2649.333375,-61.86422350000001,80.623024
7,8,0.0009070635,-0.0005155419999999999,2626.0,-61.86422350000001,80.623024
8,9,0.0009109455,-0.0005047885000000001,2602.666625,-61.86422350000001,80.623024
9,10,0.0006330655,-0.0003586905,2649.333375,-80.623024,61.8642235
10,11,0.000653132,-0.00035834349999999996,2626.0,-80.623024,61.8642235
11,12,0.0006964454999999999,-0.00035768150000000005,2602.666625,-80.623024,61.8642235
12,13,0.00031924899999999997,-0.0001412865,2649.333375,-93.88750075,38.8894758
13,14,0.0004466125,-0.0002181045,2626.0,-93.88750075,38.8894758
14,15,0.00041920200000000003,-0.00012409299999999998,2602.666625,-93.88750075,38.8894758
15,16,0.0003921395,0.00016301850000000002,2649.333375,-100.75370025000001,13.2644758
16,17,0.000571864,0.000300572,2626.0,-100.75370025000001,13.2644758
17,18,0.0008266975,0.0002171315,2602.666625,-100.75370025000001,13.2644758
18,19,0.042729550000000005,0.0241783,2578.447875,-13.2644758,100.75370025000001
19,20,0.0424557,0.024417300000000003,2553.34375,-13.2644758,100.75370025000001
20,21,0.04245455,0.024370700000000002,2528.239625,-13.2644758,100.75370025000001
21,22,0.04374855,0.02438055,2503.135375,-13.2644758,100.75370025000001
22,23,0.045557349999999996,0.0243179,2478.03125,-13.2644758,100.75370025000001
23,24,0.0485376,0.02419655,2452.927125,-13.2644758,100.75370025000001
24,25,0.053010299999999996,0.02445725,2427.822875,-13.2644758,100.75370025000001
25,26,0.053210099999999996,0.02367085,2402.71875,-13.2644758,100.75370025000001
26,27,0.043885400000000005,0.0233736,2377.614625,-13.2644758,100.75370025000001
27,28,0.04698909999999999,0.0231226,2352.510375,-13.2644758,100.75370025000001
28,29,0.05075375,0.0233091,2327.40625,-13.2644758,100.75370025000001
29,30,0.05468465,0.02313805,2302.302125,-13.2644758,100.75370025000001
30,31,0.0596082,0.02314675,2277.197875,-13.2644758,100.75370025000001
31,32,0.06456745,0.0231364,2252.09375,-13.2644758,100.75370025000001
32,33,0.0686079,0.0230729,2226.989625,-13.2644758,100.75370025000001
33,34,0.07415255,0.022891299999999996,2201.885375,-13.2644758,100.75370025000001
34,35,0.08116375,0.0234872,2176.78125,-13.2644758,100.75370025000001
35,36,0.07812720000000001,0.02202105,2151.677125,-13.2644758,100.75370025000001
36,37,0.0618899,0.02220705,2126.572875,-13.2644758,100.75370025000001
37,38,0.07046065,0.02161445,2101.46875,-13.2644758,100.75370025000001
38,39,0.07534205,0.0217519,2076.364625,-13.2644758,100.75370025000001
39,40,0.08099675,0.02184975,2051.260435,-13.2644758,100.75370025000001
40,41,0.08701275,0.021557899999999998,2026.15625,-13.2644758,100.75370025000001
41,42,0.09296435,0.02174315,2001.0520649999999,-13.2644758,100.75370025000001
42,43,0.09878500000000001,0.02185885,1975.947935,-13.2644758,100.75370025000001
43,44,0.102736,0.021708200000000004,1950.84375,-13.2644758,100.75370025000001
44,45,0.109078,0.021598350000000002,1925.7395649999999,-13.2644758,100.75370025000001
45,46,0.117091,0.022342550000000003,1900.635435,-13.2644758,100.75370025000001
46,47,0.1100575,0.0203565,1875.53125,-13.2644758,100.75370025000001
47,48,0.0914476,0.021149549999999996,1850.4270649999999,-13.2644758,100.75370025000001
48,49,0.10484544999999999,0.0199835,1825.322935,-13.2644758,100.75370025000001
49,50,0.10968599999999999,0.02031385,1800.21875,-13.2644758,100.75370025000001
50,51,0.115597,0.0204119,1775.1145649999999,-13.2644758,100.75370025000001
51,52,0.122566,0.0200262,1750.010435,-13.2644758,100.75370025000001
52,53,0.1287855,0.02027775,1724.90625,-13.2644758,100.75370025000001
53,54,0.13480999999999999,0.020455300000000003,1699.8020649999999,-13.2644758,100.75370025000001
54,55,0.138272,0.02020975,1674.697935,-13.2644758,100.75370025000001
55,56,0.144976,0.02010495,1649.59375,-13.2644758,100.75370025000001
56,57,0.1535605,0.02099745,1624.4895649999999,-13.2644758,100.75370025000001
57,58,0.14262249999999999,0.018551,1599.385435,-13.2644758,100.75370025000001
58,59,0.1268465,0.020701249999999997,1574.28125,-13.2644758,100.75370025000001
59,60,0.1445495,0.018390899999999998,1549.1770649999999,-13.2644758,100.75370025000001
60,61,0.1493365,0.0193334,1524.072935,-13.2644758,100.75370025000001
61,62,0.155353,0.0188223,1498.96875,-13.2644758,100.75370025000001
62,63,0.1606225,0.018231,1473.8645649999999,-13.2644758,100.75370025000001
63,64,0.167591,0.0176148,1448.760435,-13.2644758,100.75370025000001
64,65,0.1765195,0.018761649999999998,1423.65625,-13.2644758,100.75370025000001
65,66,0.16332399999999997,0.015743700000000003,1398.5520649999999,-13.2644758,100.75370025000001
66,67,0.029716100000000002,0.0163294,2578.447875,-38.8894758,93.88750075
67,68,0.02903735,0.016647250000000002,2553.34375,-38.8894758,93.88750075
68,69,0.0293961,0.0165137,2528.239625,-38.8894758,93.88750075
69,70,0.03293035,0.016534149999999997,2503.135375,-38.8894758,93.88750075
70,71,0.036520849999999994,0.0165184,2478.03125,-38.8894758,93.88750075
71,72,0.04368464999999999,0.01676825,2452.927125,-38.8894758,93.88750075
72,73,0.04963135,0.0170757,2427.822875,-38.8894758,93.88750075
73,74,0.051249,0.0161101,2402.71875,-38.8894758,93.88750075
74,75,0.0372143,0.01555575,2377.614625,-38.8894758,93.88750075
75,76,0.044203900000000004,0.0151142,2352.510375,-38.8894758,93.88750075
76,77,0.05080395,0.0152342,2327.40625,-38.8894758,93.88750075
77,78,0.05807225,0.015422849999999998,2302.302125,-38.8894758,93.88750075
78,79,0.06531385,0.01538,2277.197875,-38.8894758,93.88750075
79,80,0.0733037,0.0159039,2252.09375,-38.8894758,93.88750075
80,81,0.07847945,0.01578135,2226.989625,-38.8894758,93.88750075
81,82,0.08847290000000001,0.016200549999999998,2201.885375,-38.8894758,93.88750075
82,83,0.0948686,0.01671675,2176.78125,-38.8894758,93.88750075
83,84,0.0922881,0.01489625,2151.677125,-38.8894758,93.88750075
84,85,0.07288929999999999,0.014835649999999999,2126.572875,-38.8894758,93.88750075
85,86,0.085571,0.0130949,2101.46875,-38.8894758,93.88750075
86,87,0.09322755,0.0139341,2076.364625,-38.8894758,93.88750075
87,88,0.10032540000000001,0.0137794,2051.260435,-38.8894758,93.88750075
88,89,0.108825,0.014262799999999999,2026.15625,-38.8894758,93.88750075
89,90,0.1157335,0.014359150000000001,2001.0520649999999,-38.8894758,93.88750075
90,91,0.1242665,0.014913,1975.947935,-38.8894758,93.88750075
91,92,0.128528,0.01490855,1950.84375,-38.8894758,93.88750075
92,93,0.1394665,0.015317999999999998,1925.7395649999999,-38.8894758,93.88750075
93,94,0.145624,0.0162542,1900.635435,-38.8894758,93.88750075
94,95,0.1380885,0.01340305,1875.53125,-38.8894758,93.88750075
95,96,0.1172695,0.013852749999999999,1850.4270649999999,-38.8894758,93.88750075
96,97,0.1350415,0.0110824,1825.322935,-38.8894758,93.88750075
97,98,0.14297700000000002,0.0123123,1800.21875,-38.8894758,93.88750075
98,99,0.1492005,0.012221550000000001,1775.1145649999999,-38.8894758,93.88750075
99,100,0.1585465,0.012791150000000001,1750.010435,-38.8894758,93.88750075
100,101,0.165061,0.01303495,1724.90625,-38.8894758,93.88750075
101,102,0.17379100000000003,0.0137089,1699.8020649999999,-38.8894758,93.88750075
102,103,0.1770745,0.013825650000000002,1674.697935,-38.8894758,93.88750075
103,104,0.18863,0.0142691,1649.59375,-38.8894758,93.88750075
104,105,0.19437549999999998,0.01556625,1624.4895649999999,-38.8894758,93.88750075
105,106,0.182073,0.01181395,1599.385435,-38.8894758,93.88750075
106,107,0.1639145,0.0121303,1574.28125,-38.8894758,93.88750075
107,108,0.187109,0.00936976,1549.1770649999999,-38.8894758,93.88750075
108,109,0.1955905,0.010068134999999999,1524.072935,-38.8894758,93.88750075
109,110,0.2024085,0.0113385,1498.96875,-38.8894758,93.88750075
110,111,0.2082805,0.01116995,1473.8645649999999,-38.8894758,93.88750075
111,112,0.2192265,0.012615900000000003,1448.760435,-38.8894758,93.88750075
112,113,0.224332,0.01359565,1423.65625,-38.8894758,93.88750075
113,114,0.20884950000000002,0.00999119,1398.5520649999999,-38.8894758,93.88750075
114,115,0.015507050000000001,0.007522655,2578.447875,-61.86422350000001,80.623024
115,116,0.01315375,0.007260145,2553.34375,-61.86422350000001,80.623024
116,117,0.01629675,0.007426025,2528.239625,-61.86422350000001,80.623024
117,118,0.023490200000000003,0.007574565,2503.135375,-61.86422350000001,80.623024
118,119,0.030113849999999998,0.007671605,2478.03125,-61.86422350000001,80.623024
119,120,0.03959889999999999,0.007582805,2452.927125,-61.86422350000001,80.623024
120,121,0.0495716,0.00805395,2427.822875,-61.86422350000001,80.623024
121,122,0.051763050000000005,0.00770425,2402.71875,-61.86422350000001,80.623024
122,123,0.0371799,0.006715775,2377.614625,-61.86422350000001,80.623024
123,124,0.04806355,0.005873455,2352.510375,-61.86422350000001,80.623024
124,125,0.055805549999999995,0.0066024,2327.40625,-61.86422350000001,80.623024
125,126,0.06340385,0.006694625,2302.302125,-61.86422350000001,80.623024
126,127,0.07196369999999999,0.007036074999999999,2277.197875,-61.86422350000001,80.623024
127,128,0.08064545000000001,0.00692169,2252.09375,-61.86422350000001,80.623024
128,129,0.0879845,0.007121835,2226.989625,-61.86422350000001,80.623024
129,130,0.09955915000000001,0.0069795099999999995,2201.885375,-61.86422350000001,80.623024
130,131,0.11117395,0.008167745,2176.78125,-61.86422350000001,80.623024
131,132,0.10700585,0.007081495,2151.677125,-61.86422350000001,80.623024
132,133,0.0892464,0.0056903100000000005,2126.572875,-61.86422350000001,80.623024
133,134,0.10577890000000001,0.004642715,2101.46875,-61.86422350000001,80.623024
134,135,0.11179549999999999,0.0053951350000000006,2076.364625,-61.86422350000001,80.623024
135,136,0.11773800000000001,0.006218625,2051.260435,-61.86422350000001,80.623024
136,137,0.1257255,0.00581418,2026.15625,-61.86422350000001,80.623024
137,138,0.13370100000000001,0.006256405,2001.0520649999999,-61.86422350000001,80.623024
138,139,0.14266,0.006076405,1975.947935,-61.86422350000001,80.623024
139,140,0.1497125,0.006132375000000001,1950.84375,-61.86422350000001,80.623024
140,141,0.1626745,0.006257,1925.7395649999999,-61.86422350000001,80.623024
141,142,0.175603,0.007896275,1900.635435,-61.86422350000001,80.623024
142,143,0.16493,0.00631489,1875.53125,-61.86422350000001,80.623024
143,144,0.146038,0.004506335,1850.4270649999999,-61.86422350000001,80.623024
144,145,0.168591,0.002902696,1825.322935,-61.86422350000001,80.623024
145,146,0.1727355,0.004173045,1800.21875,-61.86422350000001,80.623024
146,147,0.17677349999999997,0.005172435,1775.1145649999999,-61.86422350000001,80.623024
147,148,0.1847695,0.004700675,1750.010435,-61.86422350000001,80.623024
148,149,0.192194,0.005179885,1724.90625,-61.86422350000001,80.623024
149,150,0.20111,0.00507124,1699.8020649999999,-61.86422350000001,80.623024
150,151,0.20762450000000002,0.005043925,1674.697935,-61.86422350000001,80.623024
151,152,0.22182049999999998,0.00539887,1649.59375,-61.86422350000001,80.623024
152,153,0.2358225,0.00749424,1624.4895649999999,-61.86422350000001,80.623024
153,154,0.219043,0.005437705,1599.385435,-61.86422350000001,80.623024
154,155,0.20012749999999999,0.002449889,1574.28125,-61.86422350000001,80.623024
155,156,0.2294525,-0.0005508900000000001,1549.1770649999999,-61.86422350000001,80.623024
156,157,0.23306749999999998,0.0025028900000000002,1524.072935,-61.86422350000001,80.623024
157,158,0.237554,0.0028396849999999998,1498.96875,-61.86422350000001,80.623024
158,159,0.244147,0.003833785,1473.8645649999999,-61.86422350000001,80.623024
159,160,0.257027,0.00402454,1448.760435,-61.86422350000001,80.623024
160,161,0.270263,0.0072791850000000005,1423.65625,-61.86422350000001,80.623024
161,162,0.2491365,0.0043780550000000005,1398.5520649999999,-61.86422350000001,80.623024
162,163,0.00857229,-0.00266106,2578.447875,-80.623024,61.8642235
163,164,0.006140385,-0.0023129450000000003,2553.34375,-80.623024,61.8642235
164,165,0.01153875,-0.00213703,2528.239625,-80.623024,61.8642235
165,166,0.0217481,-0.00206039,2503.135375,-80.623024,61.8642235
166,167,0.029730649999999997,-0.002431345,2478.03125,-80.623024,61.8642235
167,168,0.04189435,-0.002427225,2452.927125,-80.623024,61.8642235
168,169,0.051463499999999995,-0.002687545,2427.822875,-80.623024,61.8642235
169,170,0.057239750000000006,-0.003486575,2402.71875,-80.623024,61.8642235
170,171,0.04536535,-0.001545304,2377.614625,-80.623024,61.8642235
171,172,0.05588735,-0.0020206625,2352.510375,-80.623024,61.8642235
172,173,0.06183095,-0.00159614,2327.40625,-80.623024,61.8642235
173,174,0.06846744999999999,-0.001775735,2302.302125,-80.623024,61.8642235
174,175,0.07825725,-0.002749955,2277.197875,-80.623024,61.8642235
175,176,0.0882009,-0.00247752,2252.09375,-80.623024,61.8642235
176,177,0.095659,-0.0036393650000000003,2226.989625,-80.623024,61.8642235
177,178,0.1103845,-0.0035991549999999997,2201.885375,-80.623024,61.8642235
178,179,0.12147950000000002,-0.00378489,2176.78125,-80.623024,61.8642235
179,180,0.12331349999999999,-0.00512848,2151.677125,-80.623024,61.8642235
180,181,0.108753,-0.00019054500000000008,2126.572875,-80.623024,61.8642235
181,182,0.122591,-0.0017161735,2101.46875,-80.623024,61.8642235
182,183,0.1252355,-0.0006841585,2076.364625,-80.623024,61.8642235
183,184,0.12963,-0.0016933145,2051.260435,-80.623024,61.8642235
184,185,0.138455,-0.00220343,2026.15625,-80.623024,61.8642235
185,186,0.14648250000000002,-0.003352825,2001.0520649999999,-80.623024,61.8642235
186,187,0.15733049999999998,-0.003472015,1975.947935,-80.623024,61.8642235
187,188,0.16372599999999998,-0.00490966,1950.84375,-80.623024,61.8642235
188,189,0.1808645,-0.005242775,1925.7395649999999,-80.623024,61.8642235
189,190,0.1939975,-0.005101375,1900.635435,-80.623024,61.8642235
190,191,0.19161699999999998,-0.0072212100000000005,1875.53125,-80.623024,61.8642235
191,192,0.17594149999999997,0.0006741549999999998,1850.4270649999999,-80.623024,61.8642235
192,193,0.1931235,-0.00167134,1825.322935,-80.623024,61.8642235
193,194,0.1932625,-0.00041445900000000005,1800.21875,-80.623024,61.8642235
194,195,0.19441999999999998,-0.0016785825,1775.1145649999999,-80.623024,61.8642235
195,196,0.2034555,-0.00261997,1750.010435,-80.623024,61.8642235
196,197,0.210397,-0.003998905,1724.90625,-80.623024,61.8642235
197,198,0.2214045,-0.00441585,1699.8020649999999,-80.623024,61.8642235
198,199,0.226877,-0.00623166,1674.697935,-80.623024,61.8642235
199,200,0.2462395,-0.0068717,1649.59375,-80.623024,61.8642235
200,201,0.2612145,-0.006472314999999999,1624.4895649999999,-80.623024,61.8642235
201,202,0.254955,-0.00928868,1599.385435,-80.623024,61.8642235
202,203,0.2374445,-0.0014863,1574.28125,-80.623024,61.8642235
203,204,0.257175,-0.0033446655,1549.1770649999999,-80.623024,61.8642235
204,205,0.2575145,-0.00363599,1524.072935,-80.623024,61.8642235
205,206,0.25824400000000003,-0.00315311,1498.96875,-80.623024,61.8642235
206,207,0.26504249999999996,-0.006866065,1473.8645649999999,-80.623024,61.8642235
207,208,0.2830595,-0.006454025,1448.760435,-80.623024,61.8642235
208,209,0.297605,-0.0071295149999999995,1423.65625,-80.623024,61.8642235
209,210,0.2895305,-0.00961754,1398.5520649999999,-80.623024,61.8642235
210,211,0.02054835,-0.0112137,2578.447875,-93.88750075,38.8894758
211,212,0.020085649999999997,-0.011437,2553.34375,-93.88750075,38.8894758
212,213,0.02423855,-0.01263065,2528.239625,-93.88750075,38.8894758
213,214,0.032246449999999996,-0.013245549999999998,2503.135375,-93.88750075,38.8894758
214,215,0.0390592,-0.013310599999999999,2478.03125,-93.88750075,38.8894758
215,216,0.05109655,-0.014281100000000001,2452.927125,-93.88750075,38.8894758
216,217,0.06300535,-0.0141119,2427.822875,-93.88750075,38.8894758
217,218,0.06557915,-0.015419500000000003,2402.71875,-93.88750075,38.8894758
218,219,0.05166935,-0.006211754999999999,2377.614625,-93.88750075,38.8894758
219,220,0.06028939999999999,-0.00777698,2352.510375,-93.88750075,38.8894758
220,221,0.06647639999999999,-0.01013006,2327.40625,-93.88750075,38.8894758
221,222,0.07603085000000001,-0.01154895,2302.302125,-93.88750075,38.8894758
222,223,0.08526755,-0.012226,2277.197875,-93.88750075,38.8894758
223,224,0.09694335,-0.0139997,2252.09375,-93.88750075,38.8894758
224,225,0.104583,-0.01393235,2226.989625,-93.88750075,38.8894758
225,226,0.11890400000000001,-0.016425300000000004,2201.885375,-93.88750075,38.8894758
226,227,0.1361005,-0.017673349999999997,2176.78125,-93.88750075,38.8894758
227,228,0.13423000000000002,-0.020647899999999997,2151.677125,-93.88750075,38.8894758
228,229,0.11839,-0.000604169,2126.572875,-93.88750075,38.8894758
229,230,0.1308895,-0.0037589950000000002,2101.46875,-93.88750075,38.8894758
230,231,0.13197799999999998,-0.007399755,2076.364625,-93.88750075,38.8894758
231,232,0.138814,-0.00985782,2051.260435,-93.88750075,38.8894758
232,233,0.1493575,-0.011210600000000001,2026.15625,-93.88750075,38.8894758
233,234,0.1566005,-0.01254055,2001.0520649999999,-93.88750075,38.8894758
234,235,0.1691325,-0.014850700000000001,1975.947935,-93.88750075,38.8894758
235,236,0.175431,-0.015172950000000001,1950.84375,-93.88750075,38.8894758
236,237,0.19110950000000002,-0.01900855,1925.7395649999999,-93.88750075,38.8894758
237,238,0.21286149999999998,-0.021815,1900.635435,-93.88750075,38.8894758
238,239,0.20638,-0.026467650000000002,1875.53125,-93.88750075,38.8894758
239,240,0.189836,0.004639674999999999,1850.4270649999999,-93.88750075,38.8894758
240,241,0.206577,-0.000192121,1825.322935,-93.88750075,38.8894758
241,242,0.2024,-0.00512045,1800.21875,-93.88750075,38.8894758
242,243,0.206792,-0.00891623,1775.1145649999999,-93.88750075,38.8894758
243,244,0.21770699999999998,-0.0105681,1750.010435,-93.88750075,38.8894758
244,245,0.2233595,-0.0126754,1724.90625,-93.88750075,38.8894758
245,246,0.2364395,-0.0157289,1699.8020649999999,-93.88750075,38.8894758
246,247,0.2414485,-0.01642445,1674.697935,-93.88750075,38.8894758
247,248,0.2584305,-0.0215635,1649.59375,-93.88750075,38.8894758
248,249,0.28424150000000004,-0.025806700000000002,1624.4895649999999,-93.88750075,38.8894758
249,250,0.27353,-0.0320332,1599.385435,-93.88750075,38.8894758
250,251,0.254966,0.006841545,1574.28125,-93.88750075,38.8894758
251,252,0.2763235,-0.000360217,1549.1770649999999,-93.88750075,38.8894758
252,253,0.2662975,-0.00583359,1524.072935,-93.88750075,38.8894758
253,254,0.273429,-0.0135947,1498.96875,-93.88750075,38.8894758
254,255,0.280449,-0.0141339,1473.8645649999999,-93.88750075,38.8894758
255,256,0.295666,-0.02223,1448.760435,-93.88750075,38.8894758
256,257,0.324844,-0.0269378,1423.65625,-93.88750075,38.8894758
257,258,0.311843,-0.0349025,1398.5520649999999,-93.88750075,38.8894758
258,259,0.038491700000000004,-0.02072065,2578.447875,-100.75370025000001,13.2644758
259,260,0.04150635,-0.0238827,2553.34375,-100.75370025000001,13.2644758
260,261,0.04274395,-0.023800250000000002,2528.239625,-100.75370025000001,13.2644758
261,262,0.04825535,-0.024771750000000002,2503.135375,-100.75370025000001,13.2644758
262,263,0.05491085,-0.025469,2478.03125,-100.75370025000001,13.2644758
263,264,0.0624617,-0.025470899999999998,2452.927125,-100.75370025000001,13.2644758
264,265,0.0772411,-0.02988345,2427.822875,-100.75370025000001,13.2644758
265,266,0.08637550000000001,-0.029336100000000004,2402.71875,-100.75370025000001,13.2644758
266,267,0.0473605,-0.010462675,2377.614625,-100.75370025000001,13.2644758
267,268,0.061378,-0.01591285,2352.510375,-100.75370025000001,13.2644758
268,269,0.0741868,-0.0201036,2327.40625,-100.75370025000001,13.2644758
269,270,0.0835301,-0.02151585,2302.302125,-100.75370025000001,13.2644758
270,271,0.09353175,-0.022554400000000002,2277.197875,-100.75370025000001,13.2644758
271,272,0.1031105,-0.024137,2252.09375,-100.75370025000001,13.2644758
272,273,0.11248100000000001,-0.0258678,2226.989625,-100.75370025000001,13.2644758
273,274,0.1234885,-0.0267961,2201.885375,-100.75370025000001,13.2644758
274,275,0.141829,-0.0364602,2176.78125,-100.75370025000001,13.2644758
275,276,0.1544975,-0.0391696,2151.677125,-100.75370025000001,13.2644758
276,277,0.1133715,0.00103785,2126.572875,-100.75370025000001,13.2644758
277,278,0.124168,-0.007273005000000001,2101.46875,-100.75370025000001,13.2644758
278,279,0.1355225,-0.016426749999999997,2076.364625,-100.75370025000001,13.2644758
279,280,0.144376,-0.018467950000000004,2051.260435,-100.75370025000001,13.2644758
280,281,0.1544965,-0.02050985,2026.15625,-100.75370025000001,13.2644758
281,282,0.1634425,-0.022150549999999998,2001.0520649999999,-100.75370025000001,13.2644758
282,283,0.17293150000000002,-0.024251300000000003,1975.947935,-100.75370025000001,13.2644758
283,284,0.18143700000000001,-0.02708735,1950.84375,-100.75370025000001,13.2644758
284,285,0.193087,-0.0288727,1925.7395649999999,-100.75370025000001,13.2644758
285,286,0.2129275,-0.043913600000000004,1900.635435,-100.75370025000001,13.2644758
286,287,0.2272635,-0.04999795,1875.53125,-100.75370025000001,13.2644758
287,288,0.1874535,0.012336015,1850.4270649999999,-100.75370025000001,13.2644758
288,289,0.1954325,0.0010271749999999997,1825.322935,-100.75370025000001,13.2644758
289,290,0.2042865,-0.013388200000000001,1800.21875,-100.75370025000001,13.2644758
290,291,0.211837,-0.01619715,1775.1145649999999,-100.75370025000001,13.2644758
291,292,0.2219375,-0.01925205,1750.010435,-100.75370025000001,13.2644758
292,293,0.23035150000000001,-0.02168245,1724.90625,-100.75370025000001,13.2644758
293,294,0.2394405,-0.02454235,1699.8020649999999,-100.75370025000001,13.2644758
294,295,0.24706,-0.028388250000000004,1674.697935,-100.75370025000001,13.2644758
295,296,0.2589445,-0.030990550000000002,1649.59375,-100.75370025000001,13.2644758
296,297,0.279992,-0.0510655,1624.4895649999999,-100.75370025000001,13.2644758
297,298,0.295474,-0.060257649999999996,1599.385435,-100.75370025000001,13.2644758
298,299,0.2562305,0.0200532,1574.28125,-100.75370025000001,13.2644758
299,300,0.2617255,0.00548045,1549.1770649999999,-100.75370025000001,13.2644758
300,301,0.269146,-0.014390799999999999,1524.072935,-100.75370025000001,13.2644758
301,302,0.2760005,-0.019548700000000002,1498.96875,-100.75370025000001,13.2644758
302,303,0.28571199999999997,-0.026465000000000002,1473.8645649999999,-100.75370025000001,13.2644758
303,304,0.297837,-0.03092175,1448.760435,-100.75370025000001,13.2644758
304,305,0.319982,-0.05462425,1423.65625,-100.75370025000001,13.2644758
305,306,0.33699100000000004,-0.0662015,1398.5520649999999,-100.75370025000001,13.2644758
306,307,0.154283,-0.014234199999999999,1373.5,-13.2644758,100.75370025000001
307,308,0.1746205,-0.029499449999999997,1348.5,-13.2644758,100.75370025000001
308,309,0.1628595,-0.022290699999999997,1323.5,-13.2644758,100.75370025000001
309,310,0.19131399999999998,-0.02514375,1298.5,-13.2644758,100.75370025000001
310,311,0.207698,-0.024666399999999998,1273.5,-13.2644758,100.75370025000001
311,312,0.2255735,-0.0241487,1248.5,-13.2644758,100.75370025000001
312,313,0.22051949999999998,-0.0261377,1223.5,-13.2644758,100.75370025000001
313,314,0.207465,-0.03035205,1373.5,-38.8894758,93.88750075
314,315,0.226209,-0.045141200000000006,1348.5,-38.8894758,93.88750075
315,316,0.21353450000000002,-0.0369617,1323.5,-38.8894758,93.88750075
316,317,0.24277750000000003,-0.041566599999999995,1298.5,-38.8894758,93.88750075
317,318,0.26037299999999997,-0.04026725,1273.5,-38.8894758,93.88750075
318,319,0.26842350000000004,-0.039405300000000004,1248.5,-38.8894758,93.88750075
319,320,0.2593535,-0.04176935,1223.5,-38.8894758,93.88750075
320,321,0.252691,-0.04525345,1373.5,-61.86422350000001,80.623024
321,322,0.26604950000000005,-0.05452475,1348.5,-61.86422350000001,80.623024
322,323,0.256223,-0.0522378,1323.5,-61.86422350000001,80.623024
323,324,0.289315,-0.054450799999999994,1298.5,-61.86422350000001,80.623024
324,325,0.29819249999999997,-0.05124235,1273.5,-61.86422350000001,80.623024
325,326,0.3031075,-0.04946715,1248.5,-61.86422350000001,80.623024
326,327,0.28326399999999996,-0.04988365,1223.5,-61.86422350000001,80.623024
327,328,0.2850635,-0.05287915,1373.5,-80.623024,61.8642235
328,329,0.291263,-0.05987725000000001,1348.5,-80.623024,61.8642235
329,330,0.29307099999999997,-0.053805549999999994,1323.5,-80.623024,61.8642235
330,331,0.31053200000000003,-0.0588069,1298.5,-80.623024,61.8642235
331,332,0.3196865,-0.05849215000000001,1273.5,-80.623024,61.8642235
332,333,0.318302,-0.0567383,1248.5,-80.623024,61.8642235
333,334,0.30415749999999997,-0.058439649999999996,1223.5,-80.623024,61.8642235
334,335,0.30028499999999997,-0.059248800000000004,1373.5,-93.88750075,38.8894758
335,336,0.30602050000000003,-0.061691550000000005,1348.5,-93.88750075,38.8894758
336,337,0.3073595,-0.0427434,1323.5,-93.88750075,38.8894758
337,338,0.32782449999999996,-0.0488484,1298.5,-93.88750075,38.8894758
338,339,0.31634850000000003,-0.0557282,1273.5,-93.88750075,38.8894758
339,340,0.324253,-0.0671532,1248.5,-93.88750075,38.8894758
340,341,0.3117065,-0.07066205,1223.5,-93.88750075,38.8894758
341,342,0.30939799999999995,-0.054498950000000004,1373.5,-100.75370025000001,13.2644758
342,343,0.282674,-0.044394050000000004,1348.5,-100.75370025000001,13.2644758
343,344,0.326559,-0.008420084999999999,1323.5,-100.75370025000001,13.2644758
344,345,0.3101605,-0.02372645,1298.5,-100.75370025000001,13.2644758
345,346,0.3009235,-0.045102699999999996,1273.5,-100.75370025000001,13.2644758
346,347,0.2995775,-0.06906499999999999,1248.5,-100.75370025000001,13.2644758
347,348,0.3013935,-0.08341575000000001,1223.5,-100.75370025000001,13.2644758
348,349,0.2201715,-0.0482896,1198.5,-13.2644758,100.75370025000001
349,350,0.242577,-0.05098155,1173.5,-13.2644758,100.75370025000001
350,351,0.23350500000000002,-0.0501703,1148.5,-13.2644758,100.75370025000001
351,352,0.235564,-0.050838850000000005,1123.5,-13.2644758,100.75370025000001
352,353,0.24026650000000002,-0.05101525,1098.5,-13.2644758,100.75370025000001
353,354,0.22027549999999999,-0.05082195,1073.5,-13.2644758,100.75370025000001
354,355,0.203121,-0.0348754,1048.5,-13.2644758,100.75370025000001
355,356,0.251032,-0.0455426,1198.5,-38.8894758,93.88750075
356,357,0.271565,-0.048924999999999996,1173.5,-38.8894758,93.88750075
357,358,0.263958,-0.0478591,1148.5,-38.8894758,93.88750075
358,359,0.2553215,-0.04704459999999999,1123.5,-38.8894758,93.88750075
359,360,0.257062,-0.0474456,1098.5,-38.8894758,93.88750075
360,361,0.23009000000000002,-0.04713985,1073.5,-38.8894758,93.88750075
361,362,0.21525550000000002,-0.034212650000000004,1048.5,-38.8894758,93.88750075
362,363,0.27311,-0.04042844999999999,1198.5,-61.86422350000001,80.623024
363,364,0.2961325,-0.042254700000000006,1173.5,-61.86422350000001,80.623024
364,365,0.2771955,-0.039562799999999995,1148.5,-61.86422350000001,80.623024
365,366,0.26700999999999997,-0.03918845,1123.5,-61.86422350000001,80.623024
366,367,0.263848,-0.037993650000000004,1098.5,-61.86422350000001,80.623024
367,368,0.2313,-0.03800045,1073.5,-61.86422350000001,80.623024
368,369,0.2199715,-0.031479599999999996,1048.5,-61.86422350000001,80.623024
369,370,0.2935525,-0.022886249999999997,1198.5,-80.623024,61.8642235
370,371,0.299553,-0.02609335,1173.5,-80.623024,61.8642235
371,372,0.2811635,-0.02744615,1148.5,-80.623024,61.8642235
372,373,0.262531,-0.02672665,1123.5,-80.623024,61.8642235
373,374,0.2609635,-0.02796175,1098.5,-80.623024,61.8642235
374,375,0.2278275,-0.02516905,1073.5,-80.623024,61.8642235
375,376,0.217063,-0.026862450000000003,1048.5,-80.623024,61.8642235
376,377,0.300811,0.005854659999999999,1198.5,-93.88750075,38.8894758
377,378,0.315328,-0.002258305,1173.5,-93.88750075,38.8894758
378,379,0.2751025,-0.002523801,1148.5,-93.88750075,38.8894758
379,380,0.2472485,-0.01051403,1123.5,-93.88750075,38.8894758
380,381,0.2437425,-0.01505275,1098.5,-93.88750075,38.8894758
381,382,0.215231,-0.02111295,1073.5,-93.88750075,38.8894758
382,383,0.2068665,-0.020675899999999997,1048.5,-93.88750075,38.8894758
383,384,0.34530900000000003,0.05075395,1198.5,-100.75370025000001,13.2644758
384,385,0.30909200000000003,0.0444677,1173.5,-100.75370025000001,13.2644758
385,386,0.264719,0.022372500000000003,1148.5,-100.75370025000001,13.2644758
386,387,0.23361900000000002,0.019890949999999998,1123.5,-100.75370025000001,13.2644758
387,388,0.2045035,0.0022102449999999996,1098.5,-100.75370025000001,13.2644758
388,389,0.17565350000000002,-0.01299392,1073.5,-100.75370025000001,13.2644758
389,390,0.19025799999999998,-0.01334155,1048.5,-100.75370025000001,13.2644758
390,391,0.001239,0.000715114,12.28571415,13.2644758,100.75370025000001
391,392,0.001255745,0.000724882,36.85714245,13.2644758,100.75370025000001
392,393,0.001254395,0.000723528,61.428571700000006,13.2644758,100.75370025000001
393,394,0.001252095,0.0007213594999999999,86.0,13.2644758,100.75370025000001
394,395,0.00124882,0.0007184089999999999,110.5714266,13.2644758,100.75370025000001
395,396,0.001268285,0.0007270045,135.142857,13.2644758,100.75370025000001
396,397,0.0012205150000000001,0.000699021,159.714287,13.2644758,100.75370025000001
397,398,0.00112585,0.0006490840000000001,12.28571415,38.8894758,93.88750075
398,399,0.0011425250000000001,0.0006581625000000001,36.85714245,38.8894758,93.88750075
399,400,0.001153125,0.000660737,61.428571700000006,38.8894758,93.88750075
400,401,0.00114813,0.0006488259999999999,86.0,38.8894758,93.88750075
401,402,0.001199905,0.000662928,110.5714266,38.8894758,93.88750075
402,403,0.001230405,0.0006694655000000001,135.142857,38.8894758,93.88750075
403,404,0.00119754,0.000639758,159.714287,38.8894758,93.88750075
404,405,0.0009102190000000001,0.0005219045,12.28571415,61.86422350000001,80.623024
405,406,0.0009270155,0.000531688,36.85714245,61.86422350000001,80.623024
406,407,0.00093867,0.0005236780000000001,61.428571700000006,61.86422350000001,80.623024
407,408,0.0010031519999999998,0.000538765,86.0,61.86422350000001,80.623024
408,409,0.001053295,0.000528805,110.5714266,61.86422350000001,80.623024
409,410,0.001180815,0.0005522725,135.142857,61.86422350000001,80.623024
410,411,0.001167825,0.000525104,159.714287,61.86422350000001,80.623024
411,412,0.0005910945000000001,0.0003324055,12.28571415,80.623024,61.8642235
412,413,0.0006087255,0.00033990050000000003,36.85714245,80.623024,61.8642235
413,414,0.0006932990000000001,0.00036832200000000003,61.428571700000006,80.623024,61.8642235
414,415,0.0007432954999999999,0.0003409425,86.0,80.623024,61.8642235
415,416,0.0009336440000000001,0.00035801750000000003,110.5714266,80.623024,61.8642235
416,417,0.001057171,0.00034045599999999994,135.142857,80.623024,61.8642235
417,418,0.001166777,0.0003098355,159.714287,80.623024,61.8642235
418,419,0.0003081295,0.0001466875,12.28571415,93.88750075,38.8894758
419,420,0.00028633649999999994,0.0001512325,36.85714245,93.88750075,38.8894758
420,421,0.0003012075,8.49178e-05,61.428571700000006,93.88750075,38.8894758
421,422,0.000553995,9.43102e-05,86.0,93.88750075,38.8894758
422,423,0.0008583815,5.5029e-05,110.5714266,93.88750075,38.8894758
423,424,0.001212738,8.470195e-05,135.142857,93.88750075,38.8894758
424,425,0.001246203,4.1264e-05,159.714287,93.88750075,38.8894758
425,426,0.0005836519999999999,-0.0001375905,12.28571415,100.75370025000001,13.2644758
426,427,0.00041832999999999996,-0.000216426,36.85714245,100.75370025000001,13.2644758
427,428,0.00048465750000000005,-0.000239471,61.428571700000006,100.75370025000001,13.2644758
428,429,0.0007470915,-0.0002705125,86.0,100.75370025000001,13.2644758
429,430,0.0010525665,-0.00027327199999999997,110.5714266,100.75370025000001,13.2644758
430,431,0.00147554,-0.0003588395,135.142857,100.75370025000001,13.2644758
431,432,0.00182507,-0.0003434605,159.714287,100.75370025000001,13.2644758
432,433,0.2178695,-0.0032533700000000002,1023.6571349999999,-13.2644758,100.75370025000001
433,434,0.23045699999999997,-0.0036787850000000004,998.9714355,-13.2644758,100.75370025000001
434,435,0.2166775,-0.003424155,974.285736,-13.2644758,100.75370025000001
435,436,0.20092100000000002,-0.00385453,949.6000060000001,-13.2644758,100.75370025000001
436,437,0.19347999999999999,-0.003569835,924.914276,-13.2644758,100.75370025000001
437,438,0.1816735,-0.003847965,900.2285764999999,-13.2644758,100.75370025000001
438,439,0.16822750000000003,-0.0035544849999999996,875.5428769999999,-13.2644758,100.75370025000001
439,440,0.15845199999999998,-0.0038841599999999998,850.8571469999999,-13.2644758,100.75370025000001
440,441,0.1490765,-0.003649625,826.171417,-13.2644758,100.75370025000001
441,442,0.1253635,-0.00399557,801.4857175,-13.2644758,100.75370025000001
442,443,0.1614275,-0.0047767999999999994,776.800018,-13.2644758,100.75370025000001
443,444,0.16800900000000002,-0.0051635150000000005,752.114288,-13.2644758,100.75370025000001
444,445,0.15486650000000002,-0.0049567199999999995,727.4285580000001,-13.2644758,100.75370025000001
445,446,0.1401185,-0.00526352,702.7428585,-13.2644758,100.75370025000001
446,447,0.131618,-0.005083265,678.057159,-13.2644758,100.75370025000001
447,448,0.11978149999999999,-0.005267005,653.371429,-13.2644758,100.75370025000001
448,449,0.107267,-0.00507145,628.685699,-13.2644758,100.75370025000001
449,450,0.0964844,-0.005281155,604.0,-13.2644758,100.75370025000001
450,451,0.08632755,-0.005127015,579.314301,-13.2644758,100.75370025000001
451,452,0.0687332,-0.005335895,554.628571,-13.2644758,100.75370025000001
452,453,0.1065281,-0.0065058749999999995,529.942841,-13.2644758,100.75370025000001
453,454,0.10737519999999999,-0.006779735,505.25712599999997,-13.2644758,100.75370025000001
454,455,0.095029,-0.0066866949999999994,480.5714265,-13.2644758,100.75370025000001
455,456,0.081462,-0.006792915,455.885712,-13.2644758,100.75370025000001
456,457,0.07224295,-0.006729575,431.199997,-13.2644758,100.75370025000001
457,458,0.06068205,-0.006808015,406.514282,-13.2644758,100.75370025000001
458,459,0.04941035,-0.006641424999999999,381.8285675,-13.2644758,100.75370025000001
459,460,0.038961800000000005,-0.0068499500000000005,357.14285299999995,-13.2644758,100.75370025000001
460,461,0.02753875,-0.006617110000000001,332.457138,-13.2644758,100.75370025000001
461,462,0.0186751,-0.0068721400000000005,307.771423,-13.2644758,100.75370025000001
462,463,0.013568150000000001,-0.006579450000000001,283.0857085,-13.2644758,100.75370025000001
463,464,0.030383100000000003,-0.00704725,258.40000150000003,-13.2644758,100.75370025000001
464,465,0.0227857,-0.007067465,233.71428650000001,-13.2644758,100.75370025000001
465,466,0.015906,-0.0070506449999999995,209.028572,-13.2644758,100.75370025000001
466,467,0.015217999999999999,-0.0071007150000000005,184.34285749999998,-13.2644758,100.75370025000001
467,468,0.22761550000000003,0.00866361,1023.6571349999999,-38.8894758,93.88750075
468,469,0.240064,0.007816365,998.9714355,-38.8894758,93.88750075
469,470,0.22922599999999999,0.00781443,974.285736,-38.8894758,93.88750075
470,471,0.21225249999999998,0.008480845,949.6000060000001,-38.8894758,93.88750075
471,472,0.2050955,0.008178060000000001,924.914276,-38.8894758,93.88750075
472,473,0.1933355,0.008968460000000001,900.2285764999999,-38.8894758,93.88750075
473,474,0.179856,0.00860155,875.5428769999999,-38.8894758,93.88750075
474,475,0.1713095,0.00911586,850.8571469999999,-38.8894758,93.88750075
475,476,0.1606435,0.009304739999999999,826.171417,-38.8894758,93.88750075
476,477,0.136779,0.008126725,801.4857175,-38.8894758,93.88750075
477,478,0.16881600000000002,0.007301045,776.800018,-38.8894758,93.88750075
478,479,0.1752085,0.00667941,752.114288,-38.8894758,93.88750075
479,480,0.16429100000000002,0.00668039,727.4285580000001,-38.8894758,93.88750075
480,481,0.148461,0.007167395,702.7428585,-38.8894758,93.88750075
481,482,0.140143,0.00697083,678.057159,-38.8894758,93.88750075
482,483,0.128185,0.007516605,653.371429,-38.8894758,93.88750075
483,484,0.1156105,0.007265205,628.685699,-38.8894758,93.88750075
484,485,0.10544900000000001,0.007584795,604.0,-38.8894758,93.88750075
485,486,0.094637,0.0077380899999999996,579.314301,-38.8894758,93.88750075
486,487,0.0766955,0.00691345,554.628571,-38.8894758,93.88750075
487,488,0.1104984,0.0056051,529.942841,-38.8894758,93.88750075
488,489,0.11103844999999998,0.005240185,505.25712599999997,-38.8894758,93.88750075
489,490,0.10012680000000002,0.005261445,480.5714265,-38.8894758,93.88750075
490,491,0.08553515,0.00552151,455.885712,-38.8894758,93.88750075
491,492,0.0763783,0.00546068,431.199997,-38.8894758,93.88750075
492,493,0.06426190000000001,0.005703235,406.514282,-38.8894758,93.88750075
493,494,0.05279525,0.005547955,381.8285675,-38.8894758,93.88750075
494,495,0.0420947,0.005796849999999999,357.14285299999995,-38.8894758,93.88750075
495,496,0.030116749999999998,0.005488345,332.457138,-38.8894758,93.88750075
496,497,0.02079295,0.00594363,307.771423,-38.8894758,93.88750075
497,498,0.01255739,0.005214935,283.0857085,-38.8894758,93.88750075
498,499,0.03067185,0.006391085,258.40000150000003,-38.8894758,93.88750075
499,500,0.022199000000000003,0.00624976,233.71428650000001,-38.8894758,93.88750075
500,501,0.015393150000000001,0.006266725,209.028572,-38.8894758,93.88750075
501,502,0.01398475,0.0063031400000000005,184.34285749999998,-38.8894758,93.88750075
502,503,0.23103249999999997,0.01865085,1023.6571349999999,-61.86422350000001,80.623024
503,504,0.246891,0.019131,998.9714355,-61.86422350000001,80.623024
504,505,0.23279699999999998,0.020071900000000004,974.285736,-61.86422350000001,80.623024
505,506,0.21676700000000002,0.01985615,949.6000060000001,-61.86422350000001,80.623024
506,507,0.209959,0.020610249999999997,924.914276,-61.86422350000001,80.623024
507,508,0.199216,0.01994175,900.2285764999999,-61.86422350000001,80.623024
508,509,0.187744,0.02057925,875.5428769999999,-61.86422350000001,80.623024
509,510,0.180304,0.020258449999999997,850.8571469999999,-61.86422350000001,80.623024
510,511,0.17428949999999999,0.021116250000000003,826.171417,-61.86422350000001,80.623024
511,512,0.14933,0.0205664,801.4857175,-61.86422350000001,80.623024
512,513,0.1721885,0.01793245,776.800018,-61.86422350000001,80.623024
513,514,0.1812455,0.01834205,752.114288,-61.86422350000001,80.623024
514,515,0.16813699999999998,0.0190411,727.4285580000001,-61.86422350000001,80.623024
515,516,0.1532955,0.0189048,702.7428585,-61.86422350000001,80.623024
516,517,0.1455145,0.019426,678.057159,-61.86422350000001,80.623024
517,518,0.1346495,0.01898165,653.371429,-61.86422350000001,80.623024
518,519,0.123856,0.019402799999999998,628.685699,-61.86422350000001,80.623024
519,520,0.1149325,0.019186350000000005,604.0,-61.86422350000001,80.623024
520,521,0.1075255,0.019765249999999998,579.314301,-61.86422350000001,80.623024
521,522,0.08951985,0.019208500000000003,554.628571,-61.86422350000001,80.623024
522,523,0.1134025,0.01674985,529.942841,-61.86422350000001,80.623024
523,524,0.1157962,0.01715665,505.25712599999997,-61.86422350000001,80.623024
524,525,0.10391444999999999,0.01755155,480.5714265,-61.86422350000001,80.623024
525,526,0.090674,0.017522999999999997,455.885712,-61.86422350000001,80.623024
526,527,0.08226225000000001,0.01778925,431.199997,-61.86422350000001,80.623024
527,528,0.0717308,0.0175067,406.514282,-61.86422350000001,80.623024
528,529,0.0623363,0.017831600000000003,381.8285675,-61.86422350000001,80.623024
529,530,0.05323295,0.01744605,357.14285299999995,-61.86422350000001,80.623024
530,531,0.04496105,0.017796850000000003,332.457138,-61.86422350000001,80.623024
531,532,0.03806795,0.01757885,307.771423,-61.86422350000001,80.623024
532,533,0.0328923,0.01746,283.0857085,-61.86422350000001,80.623024
533,534,0.042997350000000004,0.0187764,258.40000150000003,-61.86422350000001,80.623024
534,535,0.0393375,0.01932,233.71428650000001,-61.86422350000001,80.623024
535,536,0.03530925,0.019384949999999998,209.028572,-61.86422350000001,80.623024
536,537,0.03362515,0.01888545,184.34285749999998,-61.86422350000001,80.623024
537,538,0.23371099999999997,0.031937400000000005,1023.6571349999999,-80.623024,61.8642235
538,539,0.24178149999999998,0.0320805,998.9714355,-80.623024,61.8642235
539,540,0.230557,0.0313349,974.285736,-80.623024,61.8642235
540,541,0.2140135,0.03157525,949.6000060000001,-80.623024,61.8642235
541,542,0.2090295,0.03000965,924.914276,-80.623024,61.8642235
542,543,0.2007855,0.0308895,900.2285764999999,-80.623024,61.8642235
543,544,0.189349,0.029383849999999996,875.5428769999999,-80.623024,61.8642235
544,545,0.186558,0.0298042,850.8571469999999,-80.623024,61.8642235
545,546,0.18015899999999999,0.029789749999999997,826.171417,-80.623024,61.8642235
546,547,0.16146100000000002,0.028630650000000004,801.4857175,-80.623024,61.8642235
547,548,0.17600549999999998,0.03085345,776.800018,-80.623024,61.8642235
548,549,0.17947249999999998,0.03106275,752.114288,-80.623024,61.8642235
549,550,0.16870000000000002,0.0304412,727.4285580000001,-80.623024,61.8642235
550,551,0.15416200000000002,0.03057915,702.7428585,-80.623024,61.8642235
551,552,0.147936,0.02947905,678.057159,-80.623024,61.8642235
552,553,0.1395355,0.0300705,653.371429,-80.623024,61.8642235
553,554,0.129195,0.029045750000000002,628.685699,-80.623024,61.8642235
554,555,0.1240995,0.0293355,604.0,-80.623024,61.8642235
555,556,0.11728050000000001,0.0294719,579.314301,-80.623024,61.8642235
556,557,0.103303,0.028500200000000003,554.628571,-80.623024,61.8642235
557,558,0.118363,0.0291589,529.942841,-80.623024,61.8642235
558,559,0.1175495,0.02952355,505.25712599999997,-80.623024,61.8642235
559,560,0.107625,0.02897985,480.5714265,-80.623024,61.8642235
560,561,0.09576815,0.02904155,455.885712,-80.623024,61.8642235
561,562,0.08909120000000001,0.02842515,431.199997,-80.623024,61.8642235
562,563,0.08118235,0.028709899999999997,406.514282,-80.623024,61.8642235
563,564,0.0734302,0.028208749999999998,381.8285675,-80.623024,61.8642235
564,565,0.06747085,0.02846355,357.14285299999995,-80.623024,61.8642235
565,566,0.060828450000000006,0.028138299999999998,332.457138,-80.623024,61.8642235
566,567,0.057285949999999995,0.028822850000000004,307.771423,-80.623024,61.8642235
567,568,0.0514265,0.0277964,283.0857085,-80.623024,61.8642235
568,569,0.05919015,0.03057965,258.40000150000003,-80.623024,61.8642235
569,570,0.05675795,0.03088635,233.71428650000001,-80.623024,61.8642235
570,571,0.054716799999999996,0.030869050000000002,209.028572,-80.623024,61.8642235
571,572,0.05338345,0.030600000000000002,184.34285749999998,-80.623024,61.8642235
572,573,0.2281965,0.04825305,1023.6571349999999,-93.88750075,38.8894758
573,574,0.23828000000000002,0.0457122,998.9714355,-93.88750075,38.8894758
574,575,0.2207185,0.04271905,974.285736,-93.88750075,38.8894758
575,576,0.20743299999999998,0.03941575,949.6000060000001,-93.88750075,38.8894758
576,577,0.20423750000000002,0.039984,924.914276,-93.88750075,38.8894758
577,578,0.19572,0.037516850000000004,900.2285764999999,-93.88750075,38.8894758
578,579,0.1887065,0.0379091,875.5428769999999,-93.88750075,38.8894758
579,580,0.183979,0.03619975,850.8571469999999,-93.88750075,38.8894758
580,581,0.18355349999999998,0.03460945,826.171417,-93.88750075,38.8894758
581,582,0.1633695,0.032614699999999996,801.4857175,-93.88750075,38.8894758
582,583,0.17524499999999998,0.04577135,776.800018,-93.88750075,38.8894758
583,584,0.180097,0.04384375,752.114288,-93.88750075,38.8894758
584,585,0.165104,0.0416256,727.4285580000001,-93.88750075,38.8894758
585,586,0.15284950000000003,0.039068099999999994,702.7428585,-93.88750075,38.8894758
586,587,0.14882,0.0394833,678.057159,-93.88750075,38.8894758
587,588,0.14022600000000002,0.037773749999999995,653.371429,-93.88750075,38.8894758
588,589,0.1337525,0.03795380000000001,628.685699,-93.88750075,38.8894758
589,590,0.1278795,0.0370192,604.0,-93.88750075,38.8894758
590,591,0.12470200000000001,0.03604645000000001,579.314301,-93.88750075,38.8894758
591,592,0.1108335,0.03476655,554.628571,-93.88750075,38.8894758
592,593,0.12272350000000001,0.042585200000000004,529.942841,-93.88750075,38.8894758
593,594,0.1226535,0.04132725,505.25712599999997,-93.88750075,38.8894758
594,595,0.11094050000000001,0.0399136,480.5714265,-93.88750075,38.8894758
595,596,0.1007335,0.03805765,455.885712,-93.88750075,38.8894758
596,597,0.09661175,0.0384108,431.199997,-93.88750075,38.8894758
597,598,0.08919075,0.03734885,406.514282,-93.88750075,38.8894758
598,599,0.0848187,0.03764785,381.8285675,-93.88750075,38.8894758
599,600,0.07952895000000001,0.0372932,357.14285299999995,-93.88750075,38.8894758
600,601,0.0758357,0.03768005,332.457138,-93.88750075,38.8894758
601,602,0.07216605,0.0374178,307.771423,-93.88750075,38.8894758
602,603,0.06845625,0.037249500000000005,283.0857085,-93.88750075,38.8894758
603,604,0.07457665,0.04089375,258.40000150000003,-93.88750075,38.8894758
604,605,0.0730788,0.04082285,233.71428650000001,-93.88750075,38.8894758
605,606,0.0711694,0.0406624,209.028572,-93.88750075,38.8894758
606,607,0.06944605000000001,0.04000775,184.34285749999998,-93.88750075,38.8894758
607,608,0.23149399999999998,0.06713245000000001,1023.6571349999999,-100.75370025000001,13.2644758
608,609,0.2222415,0.06304925,998.9714355,-100.75370025000001,13.2644758
609,610,0.204131,0.04861789999999999,974.285736,-100.75370025000001,13.2644758
610,611,0.1972375,0.047507499999999994,949.6000060000001,-100.75370025000001,13.2644758
611,612,0.1925105,0.045821,924.914276,-100.75370025000001,13.2644758
612,613,0.1875195,0.043987149999999996,900.2285764999999,-100.75370025000001,13.2644758
613,614,0.18084050000000002,0.04340415,875.5428769999999,-100.75370025000001,13.2644758
614,615,0.1775415,0.04258144999999999,850.8571469999999,-100.75370025000001,13.2644758
615,616,0.16884349999999998,0.03465225,826.171417,-100.75370025000001,13.2644758
616,617,0.1603235,0.0274818,801.4857175,-100.75370025000001,13.2644758
617,618,0.1817185,0.061559249999999996,776.800018,-100.75370025000001,13.2644758
618,619,0.17376950000000002,0.059277699999999996,752.114288,-100.75370025000001,13.2644758
619,620,0.156552,0.0482334,727.4285580000001,-100.75370025000001,13.2644758
620,621,0.150073,0.04741815,702.7428585,-100.75370025000001,13.2644758
621,622,0.1446345,0.04604415,678.057159,-100.75370025000001,13.2644758
622,623,0.13952900000000001,0.0447568,653.371429,-100.75370025000001,13.2644758
623,624,0.133525,0.04449805,628.685699,-100.75370025000001,13.2644758
624,625,0.129513,0.0439157,604.0,-100.75370025000001,13.2644758
625,626,0.12109249999999999,0.039575799999999994,579.314301,-100.75370025000001,13.2644758
626,627,0.1110635,0.0340646,554.628571,-100.75370025000001,13.2644758
627,628,0.13189299999999998,0.0551126,529.942841,-100.75370025000001,13.2644758
628,629,0.12639450000000002,0.05469325,505.25712599999997,-100.75370025000001,13.2644758
629,630,0.1115835,0.047191899999999995,480.5714265,-100.75370025000001,13.2644758
630,631,0.106094,0.04665745,455.885712,-100.75370025000001,13.2644758
631,632,0.10103100000000001,0.04544960000000001,431.199997,-100.75370025000001,13.2644758
632,633,0.096771,0.04499435,406.514282,-100.75370025000001,13.2644758
633,634,0.0931796,0.0448098,381.8285675,-100.75370025000001,13.2644758
634,635,0.0903949,0.0452196,357.14285299999995,-100.75370025000001,13.2644758
635,636,0.0872073,0.045038100000000005,332.457138,-100.75370025000001,13.2644758
636,637,0.08495675,0.04526380000000001,307.771423,-100.75370025000001,13.2644758
637,638,0.07677735,0.0417309,283.0857085,-100.75370025000001,13.2644758
638,639,0.08951719999999999,0.04972504999999999,258.40000150000003,-100.75370025000001,13.2644758
639,640,0.09075965,0.05154425,233.71428650000001,-100.75370025000001,13.2644758
640,641,0.08682329999999999,0.04996225,209.028572,-100.75370025000001,13.2644758
641,642,0.08241470000000001,0.0475331,184.34285749999998,-100.75370025000001,13.2644758
642,643,0.0005609244999999999,0.000293958,2602.666625,2.435684085,-490.559204
643,644,0.000633064,0.0003437865,2602.666625,7.307050825,-466.67762749999997
644,645,0.0006184459999999999,0.000336403,2602.666625,12.178417465,-442.796051
645,646,0.0006159774999999999,0.0003352055,2602.666625,17.049784199999998,-418.9144745
646,647,0.0006147889999999999,0.000335454,2602.666625,21.921150675,-395.032898
647,648,0.0006146115,0.0003354725,2602.666625,26.792517174999997,-371.1513215
648,649,0.000613726,0.00033545949999999993,2602.666625,31.663883674999997,-347.26974500000006
649,650,0.000613797,0.00033545950000000004,2602.666625,36.535251599999995,-323.388153
650,651,0.0006136045,0.0003354585,2602.666625,41.406618099999996,-299.5065765
651,652,0.0006141440000000001,0.00033546499999999996,2602.666625,46.277984599999996,-275.625
652,653,0.000614445,0.0003354625,2602.666625,51.14935299999999,-251.743416
653,654,0.000615697,0.00033549199999999995,2602.666625,56.0207195,-227.86183949999997
654,655,0.000616288,0.000335487,2602.666625,60.89208599999999,-203.98026249999998
655,656,0.000618667,0.00033561,2602.666625,65.7634525,-180.09868600000001
656,657,0.0006193625,0.000335614,2602.666625,70.634819,-156.2171095
657,658,0.000623719,0.0003361255,2602.666625,75.50618739999999,-132.335529
658,659,0.000624199,0.0003359315,2602.666625,80.377553925,-108.45394885000002
659,660,0.0006337504999999999,0.0003386535,2602.666625,85.24891852500001,-84.5723686
660,661,0.0006433090000000001,0.000346658,2602.666625,90.120285,-60.69078825
661,662,0.0006913635000000001,0.0003991345,2626.0,2.43568468,-490.559204
662,663,0.0006041200000000001,0.000348648,2626.0,7.307051179999999,-466.67762749999997
663,664,0.0005855599999999999,0.0003376705,2626.0,12.1784177,-442.796051
664,665,0.0005896585,0.00033965600000000003,2626.0,17.049784199999998,-418.9144745
665,666,0.000590954,0.000339895,2626.0,21.9211502,-395.032898
666,667,0.0005919370000000001,0.00033982650000000006,2626.0,26.7925167,-371.1513215
667,668,0.0005932495000000001,0.00033982200000000004,2626.0,31.6638832,-347.26974500000006
668,669,0.0005947895,0.0003398245,2626.0,36.535251599999995,-323.388153
669,670,0.0005965395,0.000339824,2626.0,41.406618099999996,-299.5065765
670,671,0.0005985035,0.00033982449999999997,2626.0,46.277984599999996,-275.625
671,672,0.000600675,0.00033982449999999997,2626.0,51.14935299999999,-251.743416
672,673,0.0006030635,0.0003398245,2626.0,56.0207195,-227.86183949999997
673,674,0.000605641,0.0003398245,2626.0,60.89208599999999,-203.98026249999998
674,675,0.000608459,0.0003398225,2626.0,65.7634525,-180.09868600000001
675,676,0.000611399,0.000339823,2626.0,70.634819,-156.2171095
676,677,0.000614828,0.0003398835,2626.0,75.50618739999999,-132.335529
677,678,0.000617833,0.0003397945,2626.0,80.377552,-108.45394885000002
678,679,0.0006188789999999999,0.000337871,2626.0,85.2489166,-84.5723686
679,680,0.0006311655,0.00034367999999999996,2626.0,90.120285,-60.69078825
680,681,0.000573046,0.00030162950000000004,2649.333375,2.435684085,-490.559204
681,682,0.000644018,0.000351683,2649.333375,7.307050825,-466.67762749999997
682,683,0.000630521,0.000344456,2649.333375,12.178417465,-442.796051
683,684,0.0006282900000000001,0.0003433085,2649.333375,17.049784199999998,-418.9144745
684,685,0.0006271965,0.000343593,2649.333375,21.921150675,-395.032898
685,686,0.000627131,0.000343621,2649.333375,26.792517175,-371.1513215
686,687,0.0006263110000000001,0.000343617,2649.333375,31.663883675,-347.26974500000006
687,688,0.0006264755,0.0003436155,2649.333375,36.535251599999995,-323.388153
688,689,0.0006263415,0.0003436175,2649.333375,41.406618099999996,-299.5065765
689,690,0.0006268975,0.00034361099999999996,2649.333375,46.277984599999996,-275.625
690,691,0.00062731,0.000343613,2649.333375,51.14935299999999,-251.743416
691,692,0.000628394,0.00034358399999999997,2649.333375,56.0207195,-227.86183949999997
692,693,0.000629219,0.0003435885,2649.333375,60.89208599999999,-203.98026249999998
693,694,0.00063093,0.0003434655,2649.333375,65.7634525,-180.09868600000001
694,695,0.0006320634999999999,0.000343476,2649.333375,70.634819,-156.2171095
695,696,0.0006342165000000001,0.000342954,2649.333375,75.50618739999999,-132.335529
696,697,0.0006349815,0.0003426575,2649.333375,80.377553925,-108.45394885000002
697,698,0.0006361795000000001,0.000341017,2649.333375,85.248918525,-84.5723686
698,699,0.000652885,0.000348029,2649.333375,90.120285,-60.69078825
699,700,0.0398752,-0.0166492,2578.447875,-2.435684085,-490.559204
700,701,0.0408519,-0.02334945,2578.447875,-7.307050825,-466.67762749999997
701,702,0.042507199999999995,-0.0244862,2578.447875,-12.178417465,-442.796051
702,703,0.0481597,-0.0276822,2578.447875,-17.049784199999998,-418.9144745
703,704,0.04994385,-0.02870425,2578.447875,-21.921150675,-395.032898
704,705,0.0530955,-0.0305623,2578.447875,-26.792517174999997,-371.1513215
705,706,0.05374265,-0.03098685,2578.447875,-31.663883674999997,-347.26974500000006
706,707,0.05537035,-0.0319566,2578.447875,-36.535251599999995,-323.388153
707,708,0.05546255,-0.0320055,2578.447875,-41.406618099999996,-299.5065765
708,709,0.05630784999999999,-0.03245189999999999,2578.447875,-46.277984599999996,-275.625
709,710,0.05616715,-0.0322826,2578.447875,-51.14935299999999,-251.743416
710,711,0.05660370000000001,-0.0324098,2578.447875,-56.0207195,-227.86183949999997
711,712,0.0562174,-0.03201635,2578.447875,-60.89208599999999,-203.98026249999998
712,713,0.056273550000000006,-0.031846,2578.447875,-65.7634525,-180.09868600000001
713,714,0.05532425,-0.0310646,2578.447875,-70.634819,-156.2171095
714,715,0.054642600000000006,-0.0304353,2578.447875,-75.50618739999999,-132.335529
715,716,0.0524038,-0.0289461,2578.447875,-80.377553925,-108.45394885000002
716,717,0.0502032,-0.027596550000000004,2578.447875,-85.24891852500001,-84.5723686
717,718,0.04519695,-0.024933900000000002,2578.447875,-90.120285,-60.69078825
718,719,0.026589500000000002,-0.013316900000000001,2553.34375,-2.43568468,-490.559204
719,720,0.0409346,-0.023452349999999997,2553.34375,-7.307051179999999,-466.67762749999997
720,721,0.046558050000000004,-0.026598249999999997,2553.34375,-12.1784177,-442.796051
721,722,0.04915865,-0.028056450000000004,2553.34375,-17.049784199999998,-418.9144745
722,723,0.05242455,-0.029963450000000003,2553.34375,-21.9211502,-395.032898
723,724,0.05296545,-0.030404550000000002,2553.34375,-26.7925167,-371.1513215
724,725,0.0545259,-0.031395099999999995,2553.34375,-31.6638832,-347.26974500000006
725,726,0.05448775,-0.03143825,2553.34375,-36.535251599999995,-323.388153
726,727,0.055278850000000004,-0.031904999999999996,2553.34375,-41.406618099999996,-299.5065765
727,728,0.055170449999999996,-0.03179825,2553.34375,-46.277984599999996,-275.625
728,729,0.0556703,-0.032000299999999995,2553.34375,-51.14935299999999,-251.743416
729,730,0.05555235,-0.03178735,2553.34375,-56.0207195,-227.86183949999997
730,731,0.055922849999999996,-0.0318131,2553.34375,-60.89208599999999,-203.98026249999998
731,732,0.05566165000000001,-0.031423450000000006,2553.34375,-65.7634525,-180.09868600000001
732,733,0.05582785,-0.0312289,2553.34375,-70.634819,-156.2171095
733,734,0.055029449999999994,-0.030459249999999997,2553.34375,-75.50618739999999,-132.335529
734,735,0.0544422,-0.029793399999999998,2553.34375,-80.377552,-108.45394885000002
735,736,0.05214355,-0.028305749999999998,2553.34375,-85.2489166,-84.5723686
736,737,0.04926895,-0.02661625,2553.34375,-90.120285,-60.69078825
737,738,0.0205095,-0.01182165,2528.239625,-2.43568468,-490.559204
738,739,0.036289749999999996,-0.020883,2528.239625,-7.307051179999999,-466.67762749999997
739,740,0.046875749999999994,-0.02672345,2528.239625,-12.1784177,-442.796051
740,741,0.05160055000000001,-0.029293600000000003,2528.239625,-17.049784199999998,-418.9144745
741,742,0.0530538,-0.03028255,2528.239625,-21.9211502,-395.032898
742,743,0.0546156,-0.0312944,2528.239625,-26.7925167,-371.1513215
743,744,0.054358949999999996,-0.03129525,2528.239625,-31.6638832,-347.26974500000006
744,745,0.0548453,-0.0316371,2528.239625,-36.535251599999995,-323.388153
745,746,0.05457895,-0.03150095,2528.239625,-41.406618099999996,-299.5065765
746,747,0.05488975,-0.031644,2528.239625,-46.277984599999996,-275.625
747,748,0.0548378,-0.03151375,2528.239625,-51.14935299999999,-251.743416
748,749,0.0552281,-0.0315967,2528.239625,-56.0207195,-227.86183949999997
749,750,0.0553336,-0.031455000000000004,2528.239625,-60.89208599999999,-203.98026249999998
750,751,0.055855,-0.03149705,2528.239625,-65.7634525,-180.09868600000001
751,752,0.05592385,-0.03124035,2528.239625,-70.634819,-156.2171095
752,753,0.05635190000000001,-0.03111195,2528.239625,-75.50618739999999,-132.335529
753,754,0.055718699999999996,-0.030403349999999996,2528.239625,-80.377552,-108.45394885000002
754,755,0.0545581,-0.029377050000000002,2528.239625,-85.2489166,-84.5723686
755,756,0.05124315,-0.027483349999999997,2528.239625,-90.120285,-60.69078825
756,757,0.021743600000000002,-0.01127695,2503.135375,-2.43568468,-490.559204
757,758,0.03613715,-0.0199347,2503.135375,-7.307051179999999,-466.67762749999997
758,759,0.0465095,-0.0261674,2503.135375,-12.1784177,-442.796051
759,760,0.05181575,-0.0293897,2503.135375,-17.049784199999998,-418.9144745
760,761,0.05452815,-0.0310775,2503.135375,-21.9211502,-395.032898
761,762,0.05458955,-0.03133665,2503.135375,-26.7925167,-371.1513215
762,763,0.05482635,-0.031558749999999997,2503.135375,-31.6638832,-347.26974500000006
763,764,0.054401,-0.031393649999999995,2503.135375,-36.535251599999995,-323.388153
764,765,0.05435065,-0.03137315,2503.135375,-41.406618099999996,-299.5065765
765,766,0.0542192,-0.03125,2503.135375,-46.277984599999996,-275.625
766,767,0.054385100000000006,-0.03125695,2503.135375,-51.14935299999999,-251.743416
767,768,0.054589,-0.0312218,2503.135375,-56.0207195,-227.86183949999997
768,769,0.05506804999999999,-0.031300350000000005,2503.135375,-60.89208599999999,-203.98026249999998
769,770,0.05552235,-0.031319349999999996,2503.135375,-65.7634525,-180.09868600000001
770,771,0.0562744,-0.031434149999999994,2503.135375,-70.634819,-156.2171095
771,772,0.056641500000000004,-0.03132355,2503.135375,-75.50618739999999,-132.335529
772,773,0.05704235,-0.03110835,2503.135375,-80.377552,-108.45394885000002
773,774,0.05585514999999999,-0.03000235,2503.135375,-85.2489166,-84.5723686
774,775,0.05210085,-0.027406049999999998,2503.135375,-90.120285,-60.69078825
775,776,0.02779275,-0.01087535,2478.03125,-2.43568468,-490.559204
776,777,0.03913295,-0.020213250000000002,2478.03125,-7.307051179999999,-466.67762749999997
777,778,0.0470962,-0.025889750000000003,2478.03125,-12.1784177,-442.796051
778,779,0.052921350000000006,-0.0298323,2478.03125,-17.049784199999998,-418.9144745
779,780,0.0540537,-0.0309024,2478.03125,-21.9211502,-395.032898
780,781,0.054477849999999994,-0.031260750000000004,2478.03125,-26.7925167,-371.1513215
781,782,0.0542198,-0.03125295,2478.03125,-31.6638832,-347.26974500000006
782,783,0.05383734999999999,-0.03107045,2478.03125,-36.535251599999995,-323.388153
783,784,0.0536668,-0.03097555,2478.03125,-41.406618099999996,-299.5065765
784,785,0.05350205,-0.030838749999999998,2478.03125,-46.277984599999996,-275.625
785,786,0.0536788,-0.030838900000000002,2478.03125,-51.14935299999999,-251.743416
786,787,0.053899050000000004,-0.030827800000000002,2478.03125,-56.0207195,-227.86183949999997
787,788,0.0544231,-0.0309404,2478.03125,-60.89208599999999,-203.98026249999998
788,789,0.05503045,-0.031046699999999997,2478.03125,-65.7634525,-180.09868600000001
789,790,0.055787500000000004,-0.031221600000000002,2478.03125,-70.634819,-156.2171095
790,791,0.056608500000000006,-0.031319849999999996,2478.03125,-75.50618739999999,-132.335529
791,792,0.056954500000000005,-0.03114935,2478.03125,-80.377552,-108.45394885000002
792,793,0.0569546,-0.030499199999999997,2478.03125,-85.2489166,-84.5723686
793,794,0.054113949999999994,-0.0277954,2478.03125,-90.120285,-60.69078825
794,795,0.0365239,-0.01133645,2452.927125,-2.43568468,-490.559204
795,796,0.0436496,-0.02046185,2452.927125,-7.307051179999999,-466.67762749999997
796,797,0.0514331,-0.02770315,2452.927125,-12.1784177,-442.796051
797,798,0.052164699999999994,-0.0294442,2452.927125,-17.049784199999998,-418.9144745
798,799,0.0530327,-0.03022465,2452.927125,-21.9211502,-395.032898
799,800,0.053366699999999996,-0.03068,2452.927125,-26.7925167,-371.1513215
800,801,0.05285365,-0.0304562,2452.927125,-31.6638832,-347.26974500000006
801,802,0.052908,-0.030541350000000002,2452.927125,-36.535251599999995,-323.388153
802,803,0.05247435,-0.0302869,2452.927125,-41.406618099999996,-299.5065765
803,804,0.0526789,-0.03035115,2452.927125,-46.277984599999996,-275.625
804,805,0.05260365,-0.03021935,2452.927125,-51.14935299999999,-251.743416
805,806,0.053085099999999996,-0.03035505,2452.927125,-56.0207195,-227.86183949999997
806,807,0.0533798,-0.03034295,2452.927125,-60.89208599999999,-203.98026249999998
807,808,0.05414255,-0.030568400000000003,2452.927125,-65.7634525,-180.09868600000001
808,809,0.05473085,-0.030618650000000004,2452.927125,-70.634819,-156.2171095
809,810,0.0556063,-0.03083015,2452.927125,-75.50618739999999,-132.335529
810,811,0.05627335,-0.030708700000000002,2452.927125,-80.377552,-108.45394885000002
811,812,0.056410100000000005,-0.0301974,2452.927125,-85.2489166,-84.5723686
812,813,0.05728365,-0.029234050000000004,2452.927125,-90.120285,-60.69078825
813,814,0.04969055,-0.012044949999999999,2427.822875,-2.43568468,-490.559204
814,815,0.0550047,-0.02532115,2427.822875,-7.307051179999999,-466.67762749999997
815,816,0.05088305,-0.027585650000000003,2427.822875,-12.1784177,-442.796051
816,817,0.05054159999999999,-0.028204100000000003,2427.822875,-17.049784199999998,-418.9144745
817,818,0.05143675,-0.0293454,2427.822875,-21.9211502,-395.032898
818,819,0.05090245,-0.029209899999999997,2427.822875,-26.7925167,-371.1513215
819,820,0.0515569,-0.029719299999999997,2427.822875,-31.6638832,-347.26974500000006
820,821,0.051041,-0.0294572,2427.822875,-36.535251599999995,-323.388153
821,822,0.05147695,-0.0297028,2427.822875,-41.406618099999996,-299.5065765
822,823,0.05120385000000001,-0.02949805,2427.822875,-46.277984599999996,-275.625
823,824,0.051697049999999994,-0.029685450000000002,2427.822875,-51.14935299999999,-251.743416
824,825,0.05171819999999999,-0.02956375,2427.822875,-56.0207195,-227.86183949999997
825,826,0.05238605,-0.02977315,2427.822875,-60.89208599999999,-203.98026249999998
826,827,0.052633099999999995,-0.02968805,2427.822875,-65.7634525,-180.09868600000001
827,828,0.053465849999999995,-0.02991555,2427.822875,-70.634819,-156.2171095
828,829,0.053795899999999994,-0.0297314,2427.822875,-75.50618739999999,-132.335529
829,830,0.0546895,-0.029829849999999998,2427.822875,-80.377552,-108.45394885000002
830,831,0.0552808,-0.0292919,2427.822875,-85.2489166,-84.5723686
831,832,0.0563273,-0.028804699999999996,2427.822875,-90.120285,-60.69078825
832,833,0.0712917,-0.01950025,2402.71875,-2.43568468,-490.559204
833,834,0.0538843,-0.026028199999999998,2402.71875,-7.307051179999999,-466.67762749999997
834,835,0.0475928,-0.024842799999999998,2402.71875,-12.1784177,-442.796051
835,836,0.04887034999999999,-0.027213099999999997,2402.71875,-17.049784199999998,-418.9144745
836,837,0.047914,-0.027169350000000002,2402.71875,-21.9211502,-395.032898
837,838,0.04944255,-0.02835935,2402.71875,-26.7925167,-371.1513215
838,839,0.0490202,-0.02823205,2402.71875,-31.6638832,-347.26974500000006
839,840,0.049919,-0.028804749999999997,2402.71875,-36.535251599999995,-323.388153
840,841,0.04959205,-0.02861055,2402.71875,-41.406618099999996,-299.5065765
841,842,0.0502161,-0.028918700000000002,2402.71875,-46.277984599999996,-275.625
842,843,0.0500786,-0.02874595,2402.71875,-51.14935299999999,-251.743416
843,844,0.05071055,-0.028973650000000004,2402.71875,-56.0207195,-227.86183949999997
844,845,0.05074964999999999,-0.0288138,2402.71875,-60.89208599999999,-203.98026249999998
845,846,0.051470499999999995,-0.029007650000000003,2402.71875,-65.7634525,-180.09868600000001
846,847,0.051523,-0.02874,2402.71875,-70.634819,-156.2171095
847,848,0.05230765,-0.02883385,2402.71875,-75.50618739999999,-132.335529
848,849,0.052213800000000005,-0.028200050000000004,2402.71875,-80.377552,-108.45394885000002
849,850,0.05345470000000001,-0.0281406,2402.71875,-85.2489166,-84.5723686
850,851,0.05394515,-0.0266782,2402.71875,-90.120285,-60.69078825
851,852,0.02601905,-0.014065349999999999,2377.614625,-2.43568468,-490.559204
852,853,0.039964200000000005,-0.0203954,2377.614625,-7.307051179999999,-466.67762749999997
853,854,0.0459624,-0.023765099999999997,2377.614625,-12.1784177,-442.796051
854,855,0.05146615,-0.02750205,2377.614625,-17.049784199999998,-418.9144745
855,856,0.054187799999999994,-0.02978695,2377.614625,-21.9211502,-395.032898
856,857,0.057362899999999994,-0.03233175,2377.614625,-26.7925167,-371.1513215
857,858,0.0586802,-0.03360325,2377.614625,-31.6638832,-347.26974500000006
858,859,0.060900100000000006,-0.03513855,2377.614625,-36.535251599999995,-323.388153
859,860,0.0618238,-0.035608799999999996,2377.614625,-41.406618099999996,-299.5065765
860,861,0.06368504999999999,-0.03629695,2377.614625,-46.277984599999996,-275.625
861,862,0.06465699999999999,-0.03611544999999999,2377.614625,-51.14935299999999,-251.743416
862,863,0.06638635,-0.036063750000000006,2377.614625,-56.0207195,-227.86183949999997
863,864,0.0673975,-0.0352398,2377.614625,-60.89208599999999,-203.98026249999998
864,865,0.0688596,-0.034420099999999995,2377.614625,-65.7634525,-180.09868600000001
865,866,0.0695465,-0.03282304999999999,2377.614625,-70.634819,-156.2171095
866,867,0.0702119,-0.03105285,2377.614625,-75.50618739999999,-132.335529
867,868,0.06984489999999999,-0.028455050000000003,2377.614625,-80.377552,-108.45394885000002
868,869,0.06872765,-0.0254659,2377.614625,-85.2489166,-84.5723686
869,870,0.06580554999999999,-0.021566099999999998,2377.614625,-90.120285,-60.69078825
870,871,0.0312832,-0.014868800000000001,2352.510375,-2.43568468,-490.559204
871,872,0.0441869,-0.0212355,2352.510375,-7.307051179999999,-466.67762749999997
872,873,0.05037095,-0.024831100000000002,2352.510375,-12.1784177,-442.796051
873,874,0.0531591,-0.0272581,2352.510375,-17.049784199999998,-418.9144745
874,875,0.05570844999999999,-0.02987745,2352.510375,-21.9211502,-395.032898
875,876,0.05638375,-0.03126085000000001,2352.510375,-26.7925167,-371.1513215
876,877,0.057969599999999996,-0.032958,2352.510375,-31.6638832,-347.26974500000006
877,878,0.058330349999999996,-0.033581150000000004,2352.510375,-36.535251599999995,-323.388153
878,879,0.0598446,-0.03447955,2352.510375,-41.406618099999996,-299.5065765
879,880,0.060657050000000004,-0.034541550000000004,2352.510375,-46.277984599999996,-275.625
880,881,0.06247335,-0.034798449999999995,2352.510375,-51.14935299999999,-251.743416
881,882,0.0638686,-0.034370250000000005,2352.510375,-56.0207195,-227.86183949999997
882,883,0.06600784999999999,-0.0340427,2352.510375,-60.89208599999999,-203.98026249999998
883,884,0.06774335,-0.0330573,2352.510375,-65.7634525,-180.09868600000001
884,885,0.06986425,-0.0320511,2352.510375,-70.634819,-156.2171095
885,886,0.07140225,-0.03033075,2352.510375,-75.50618739999999,-132.335529
886,887,0.0727054,-0.02840615,2352.510375,-80.377552,-108.45394885000002
887,888,0.0729815,-0.02573295,2352.510375,-85.2489166,-84.5723686
888,889,0.0719089,-0.02253935,2352.510375,-90.120285,-60.69078825
889,890,0.0348243,-0.01254655,2327.40625,-2.43568468,-490.559204
890,891,0.0459346,-0.0205937,2327.40625,-7.307051179999999,-466.67762749999997
891,892,0.05257955,-0.02479315,2327.40625,-12.1784177,-442.796051
892,893,0.055797450000000005,-0.027911349999999998,2327.40625,-17.049784199999998,-418.9144745
893,894,0.056455200000000004,-0.029588200000000002,2327.40625,-21.9211502,-395.032898
894,895,0.05747265,-0.03148515,2327.40625,-26.7925167,-371.1513215
895,896,0.05697685,-0.0321696,2327.40625,-31.6638832,-347.26974500000006
896,897,0.05775759999999999,-0.033178,2327.40625,-36.535251599999995,-323.388153
897,898,0.05788435,-0.03333815,2327.40625,-41.406618099999996,-299.5065765
898,899,0.05925995,-0.033752000000000004,2327.40625,-46.277984599999996,-275.625
899,900,0.060498399999999994,-0.0335753,2327.40625,-51.14935299999999,-251.743416
900,901,0.0627274,-0.0335698,2327.40625,-56.0207195,-227.86183949999997
901,902,0.06491805,-0.03305395,2327.40625,-60.89208599999999,-203.98026249999998
902,903,0.0678126,-0.032629149999999996,2327.40625,-65.7634525,-180.09868600000001
903,904,0.07047065,-0.031621399999999994,2327.40625,-70.634819,-156.2171095
904,905,0.0733615,-0.030570450000000002,2327.40625,-75.50618739999999,-132.335529
905,906,0.07561635,-0.028785400000000003,2327.40625,-80.377552,-108.45394885000002
906,907,0.07704914999999998,-0.0266275,2327.40625,-85.2489166,-84.5723686
907,908,0.0770532,-0.02364025,2327.40625,-90.120285,-60.69078825
908,909,0.04150714999999999,-0.01168605,2302.302125,-2.43568468,-490.559204
909,910,0.0481956,-0.01873615,2302.302125,-7.307051179999999,-466.67762749999997
910,911,0.054168400000000005,-0.024571700000000002,2302.302125,-12.1784177,-442.796051
911,912,0.056692650000000004,-0.027521000000000004,2302.302125,-17.049784199999998,-418.9144745
912,913,0.05818545,-0.03016845,2302.302125,-21.9211502,-395.032898
913,914,0.05724254999999999,-0.03109105,2302.302125,-26.7925167,-371.1513215
914,915,0.0574128,-0.03228855,2302.302125,-31.6638832,-347.26974500000006
915,916,0.05657635,-0.0324651,2302.302125,-36.535251599999995,-323.388153
916,917,0.05714845,-0.032922099999999996,2302.302125,-41.406618099999996,-299.5065765
917,918,0.05773085,-0.032843899999999995,2302.302125,-46.277984599999996,-275.625
918,919,0.0594846,-0.03297075,2302.302125,-51.14935299999999,-251.743416
919,920,0.06156225,-0.03274565,2302.302125,-56.0207195,-227.86183949999997
920,921,0.06454570000000001,-0.03266815,2302.302125,-60.89208599999999,-203.98026249999998
921,922,0.06767619999999999,-0.03220525,2302.302125,-65.7634525,-180.09868600000001
922,923,0.0714267,-0.03182145,2302.302125,-70.634819,-156.2171095
923,924,0.07484325,-0.030808250000000002,2302.302125,-75.50618739999999,-132.335529
924,925,0.07816535,-0.029637249999999997,2302.302125,-80.377552,-108.45394885000002
925,926,0.0805043,-0.027454350000000002,2302.302125,-85.2489166,-84.5723686
926,927,0.08096020000000001,-0.02434555,2302.302125,-90.120285,-60.69078825
927,928,0.0484973,-0.01029399,2277.197875,-2.43568468,-490.559204
928,929,0.0522807,-0.01822935,2277.197875,-7.307051179999999,-466.67762749999997
929,930,0.055636099999999994,-0.023339199999999997,2277.197875,-12.1784177,-442.796051
930,931,0.0585624,-0.02796105,2277.197875,-17.049784199999998,-418.9144745
931,932,0.05792635,-0.0296738,2277.197875,-21.9211502,-395.032898
932,933,0.0581315,-0.031462000000000004,2277.197875,-26.7925167,-371.1513215
933,934,0.0564103,-0.031721250000000006,2277.197875,-31.6638832,-347.26974500000006
934,935,0.05616115,-0.0322171,2277.197875,-36.535251599999995,-323.388153
935,936,0.0558022,-0.032143149999999995,2277.197875,-41.406618099999996,-299.5065765
936,937,0.0566943,-0.03225655,2277.197875,-46.277984599999996,-275.625
937,938,0.0581994,-0.0321559,2277.197875,-51.14935299999999,-251.743416
938,939,0.0606913,-0.0321985,2277.197875,-56.0207195,-227.86183949999997
939,940,0.06375565,-0.03207825,2277.197875,-60.89208599999999,-203.98026249999998
940,941,0.06761495000000001,-0.0320764,2277.197875,-65.7634525,-180.09868600000001
941,942,0.07156499999999999,-0.031722600000000004,2277.197875,-70.634819,-156.2171095
942,943,0.07606985,-0.03140075,2277.197875,-75.50618739999999,-132.335529
943,944,0.07988304999999998,-0.03016025,2277.197875,-80.377552,-108.45394885000002
944,945,0.0832264,-0.02847865,2277.197875,-85.2489166,-84.5723686
945,946,0.08530805,-0.025015350000000002,2277.197875,-90.120285,-60.69078825
946,947,0.0559094,-0.009594855,2252.09375,-2.43568468,-490.559204
947,948,0.0572188,-0.01702845,2252.09375,-7.307051179999999,-466.67762749999997
948,949,0.0594764,-0.02403085,2252.09375,-12.1784177,-442.796051
949,950,0.05866969999999999,-0.02715035,2252.09375,-17.049784199999998,-418.9144745
950,951,0.05939005,-0.03025665,2252.09375,-21.9211502,-395.032898
951,952,0.05680385,-0.030790849999999998,2252.09375,-26.7925167,-371.1513215
952,953,0.05594975,-0.031441,2252.09375,-31.6638832,-347.26974500000006
953,954,0.054605799999999996,-0.0313748,2252.09375,-36.535251599999995,-323.388153
954,955,0.0544973,-0.03140419999999999,2252.09375,-41.406618099999996,-299.5065765
955,956,0.0551621,-0.03132575,2252.09375,-46.277984599999996,-275.625
956,957,0.05677825,-0.03132285,2252.09375,-51.14935299999999,-251.743416
957,958,0.0593652,-0.0313566,2252.09375,-56.0207195,-227.86183949999997
958,959,0.0627324,-0.03146595,2252.09375,-60.89208599999999,-203.98026249999998
959,960,0.066695,-0.0315337,2252.09375,-65.7634525,-180.09868600000001
960,961,0.07139714999999999,-0.0316725,2252.09375,-70.634819,-156.2171095
961,962,0.0759598,-0.03138025,2252.09375,-75.50618739999999,-132.335529
962,963,0.08126685,-0.031040899999999996,2252.09375,-80.377552,-108.45394885000002
963,964,0.08540885000000001,-0.0291213,2252.09375,-85.2489166,-84.5723686
964,965,0.08924699999999999,-0.026437549999999997,2252.09375,-90.120285,-60.69078825
965,966,0.06512875,-0.00871823,2226.989625,-2.43568468,-490.559204
966,967,0.0641163,-0.0181805,2226.989625,-7.307051179999999,-466.67762749999997
967,968,0.06180284999999999,-0.023369,2226.989625,-12.1784177,-442.796051
968,969,0.062185700000000003,-0.028561700000000002,2226.989625,-17.049784199999998,-418.9144745
969,970,0.0577144,-0.0294685,2226.989625,-21.9211502,-395.032898
970,971,0.05620745,-0.03036415,2226.989625,-26.7925167,-371.1513215
971,972,0.0538536,-0.030385749999999996,2226.989625,-31.6638832,-347.26974500000006
972,973,0.05273989999999999,-0.030312750000000003,2226.989625,-36.535251599999995,-323.388153
973,974,0.052503600000000004,-0.0302457,2226.989625,-41.406618099999996,-299.5065765
974,975,0.05307110000000001,-0.030112399999999998,2226.989625,-46.277984599999996,-275.625
975,976,0.0549387,-0.03018625,2226.989625,-51.14935299999999,-251.743416
976,977,0.057460750000000005,-0.030229199999999998,2226.989625,-56.0207195,-227.86183949999997
977,978,0.061044299999999996,-0.030474,2226.989625,-60.89208599999999,-203.98026249999998
978,979,0.0652422,-0.03071435,2226.989625,-65.7634525,-180.09868600000001
979,980,0.0699442,-0.03099265,2226.989625,-70.634819,-156.2171095
980,981,0.07550409999999999,-0.03126705,2226.989625,-75.50618739999999,-132.335529
981,982,0.0806907,-0.030982500000000003,2226.989625,-80.377552,-108.45394885000002
982,983,0.0875678,-0.0306335,2226.989625,-85.2489166,-84.5723686
983,984,0.09277985,-0.027648199999999998,2226.989625,-90.120285,-60.69078825
984,985,0.07470479999999999,-0.009277529999999999,2201.885375,-2.43568468,-490.559204
985,986,0.07117720000000001,-0.01803905,2201.885375,-7.307051179999999,-466.67762749999997
986,987,0.06951565,-0.0269278,2201.885375,-12.1784177,-442.796051
987,988,0.0603325,-0.0280313,2201.885375,-17.049784199999998,-418.9144745
988,989,0.0571878,-0.028862799999999997,2201.885375,-21.9211502,-395.032898
989,990,0.053481150000000005,-0.0290624,2201.885375,-26.7925167,-371.1513215
990,991,0.051194550000000005,-0.0288259,2201.885375,-31.6638832,-347.26974500000006
991,992,0.0501041,-0.028844800000000004,2201.885375,-36.535251599999995,-323.388153
992,993,0.0495742,-0.02855725,2201.885375,-41.406618099999996,-299.5065765
993,994,0.05065315,-0.028655600000000003,2201.885375,-46.277984599999996,-275.625
994,995,0.05219205,-0.02856095,2201.885375,-51.14935299999999,-251.743416
995,996,0.05516965,-0.0288391,2201.885375,-56.0207195,-227.86183949999997
996,997,0.05856045,-0.028986199999999997,2201.885375,-60.89208599999999,-203.98026249999998
997,998,0.06296484999999999,-0.0294521,2201.885375,-65.7634525,-180.09868600000001
998,999,0.06788240000000001,-0.02980045,2201.885375,-70.634819,-156.2171095
999,1000,0.0732984,-0.030316199999999998,2201.885375,-75.50618739999999,-132.335529
1000,1001,0.0799517,-0.030701600000000002,2201.885375,-80.377552,-108.45394885000002
1001,1002,0.08625279999999999,-0.03063015,2201.885375,-85.2489166,-84.5723686
1002,1003,0.0965029,-0.030554449999999997,2201.885375,-90.120285,-60.69078825
1003,1004,0.0902617,-0.009188394999999999,2176.78125,-2.43568468,-490.559204
1004,1005,0.08585195000000001,-0.02603185,2176.78125,-7.307051179999999,-466.67762749999997
1005,1006,0.06661205,-0.02725905,2176.78125,-12.1784177,-442.796051
1006,1007,0.05957405,-0.026858399999999998,2176.78125,-17.049784199999998,-418.9144745
1007,1008,0.05393035,-0.027396999999999998,2176.78125,-21.9211502,-395.032898
1008,1009,0.0498418,-0.02678065,2176.78125,-26.7925167,-371.1513215
1009,1010,0.04791455,-0.027028749999999997,2176.78125,-31.6638832,-347.26974500000006
1010,1011,0.04620225,-0.02658645,2176.78125,-36.535251599999995,-323.388153
1011,1012,0.0465255,-0.026776,2176.78125,-41.406618099999996,-299.5065765
1012,1013,0.047056600000000004,-0.02654985,2176.78125,-46.277984599999996,-275.625
1013,1014,0.049346100000000004,-0.0268329,2176.78125,-51.14935299999999,-251.743416
1014,1015,0.051876900000000004,-0.0268392,2176.78125,-56.0207195,-227.86183949999997
1015,1016,0.05576225,-0.027297150000000003,2176.78125,-60.89208599999999,-203.98026249999998
1016,1017,0.05986375,-0.027513849999999996,2176.78125,-65.7634525,-180.09868600000001
1017,1018,0.06497685,-0.028177300000000002,2176.78125,-70.634819,-156.2171095
1018,1019,0.07051370000000001,-0.02853435,2176.78125,-75.50618739999999,-132.335529
1019,1020,0.07689575000000001,-0.029402700000000004,2176.78125,-80.377552,-108.45394885000002
1020,1021,0.08493115,-0.029793,2176.78125,-85.2489166,-84.5723686
1021,1022,0.09342625,-0.030699900000000002,2176.78125,-90.120285,-60.69078825
1022,1023,0.116809,-0.0221934,2151.677125,-2.43568468,-490.559204
1023,1024,0.07950565000000001,-0.0281097,2151.677125,-7.307051179999999,-466.67762749999997
1024,1025,0.0635371,-0.02374675,2151.677125,-12.1784177,-442.796051
1025,1026,0.05597605,-0.025245950000000003,2151.677125,-17.049784199999998,-418.9144745
1026,1027,0.048989649999999996,-0.02398715,2151.677125,-21.9211502,-395.032898
1027,1028,0.046185500000000004,-0.02469615,2151.677125,-26.7925167,-371.1513215
1028,1029,0.0430347,-0.02412305,2151.677125,-31.6638832,-347.26974500000006
1029,1030,0.04260305,-0.024513800000000002,2151.677125,-36.535251599999995,-323.388153
1030,1031,0.0420846,-0.0242029,2151.677125,-41.406618099999996,-299.5065765
1031,1032,0.043653250000000005,-0.02452915,2151.677125,-46.277984599999996,-275.625
1032,1033,0.04534535,-0.024424099999999997,2151.677125,-51.14935299999999,-251.743416
1033,1034,0.04863755,-0.024836499999999997,2151.677125,-56.0207195,-227.86183949999997
1034,1035,0.0520279,-0.02491645,2151.677125,-60.89208599999999,-203.98026249999998
1035,1036,0.0566563,-0.02549295,2151.677125,-65.7634525,-180.09868600000001
1036,1037,0.061307749999999994,-0.025688700000000002,2151.677125,-70.634819,-156.2171095
1037,1038,0.06717855,-0.026503649999999997,2151.677125,-75.50618739999999,-132.335529
1038,1039,0.0732049,-0.026673999999999996,2151.677125,-80.377552,-108.45394885000002
1039,1040,0.08115050000000001,-0.028036950000000005,2151.677125,-85.2489166,-84.5723686
1040,1041,0.0902606,-0.027877199999999998,2151.677125,-90.120285,-60.69078825
1041,1042,0.0569722,-0.010707945,2126.572875,-2.43568468,-490.559204
1042,1043,0.057662000000000005,-0.016755049999999997,2126.572875,-7.307051179999999,-466.67762749999997
1043,1044,0.06186445,-0.023524549999999998,2126.572875,-12.1784177,-442.796051
1044,1045,0.062171649999999995,-0.02733295,2126.572875,-17.049784199999998,-418.9144745
1045,1046,0.0640955,-0.03176745,2126.572875,-21.9211502,-395.032898
1046,1047,0.0638135,-0.034107799999999994,2126.572875,-26.7925167,-371.1513215
1047,1048,0.06578044999999999,-0.03701805,2126.572875,-31.6638832,-347.26974500000006
1048,1049,0.06625410000000001,-0.0381532,2126.572875,-36.535251599999995,-323.388153
1049,1050,0.06915905,-0.0397735,2126.572875,-41.406618099999996,-299.5065765
1050,1051,0.07108835,-0.03987655,2126.572875,-46.277984599999996,-275.625
1051,1052,0.07511805,-0.040340749999999995,2126.572875,-51.14935299999999,-251.743416
1052,1053,0.0784359,-0.0394679,2126.572875,-56.0207195,-227.86183949999997
1053,1054,0.0832724,-0.03881,2126.572875,-60.89208599999999,-203.98026249999998
1054,1055,0.0874,-0.03687675,2126.572875,-65.7634525,-180.09868600000001
1055,1056,0.09241300000000001,-0.03499265,2126.572875,-70.634819,-156.2171095
1056,1057,0.09654489999999999,-0.03178285,2126.572875,-75.50618739999999,-132.335529
1057,1058,0.10094449999999999,-0.0284434,2126.572875,-80.377552,-108.45394885000002
1058,1059,0.1040825,-0.02359215,2126.572875,-85.2489166,-84.5723686
1059,1060,0.106991,-0.018508,2126.572875,-90.120285,-60.69078825
1060,1061,0.0656714,-0.01676305,2101.46875,-2.43568468,-490.559204
1061,1062,0.0696139,-0.0191845,2101.46875,-7.307051179999999,-466.67762749999997
1062,1063,0.06710150000000001,-0.022941000000000003,2101.46875,-12.1784177,-442.796051
1063,1064,0.06677174999999999,-0.027186349999999998,2101.46875,-17.049784199999998,-418.9144745
1064,1065,0.06411145000000001,-0.02966075,2101.46875,-21.9211502,-395.032898
1065,1066,0.06365725,-0.03278485,2101.46875,-26.7925167,-371.1513215
1066,1067,0.061937549999999994,-0.03416845,2101.46875,-31.6638832,-347.26974500000006
1067,1068,0.0630498,-0.03612045,2101.46875,-36.535251599999995,-323.388153
1068,1069,0.0636269,-0.0365757,2101.46875,-41.406618099999996,-299.5065765
1069,1070,0.06692895,-0.0374689,2101.46875,-46.277984599999996,-275.625
1070,1071,0.07008734999999999,-0.037099450000000006,2101.46875,-51.14935299999999,-251.743416
1071,1072,0.07530300000000001,-0.03703015,2101.46875,-56.0207195,-227.86183949999997
1072,1073,0.08035339999999999,-0.0358164,2101.46875,-60.89208599999999,-203.98026249999998
1073,1074,0.08671409999999999,-0.03476445,2101.46875,-65.7634525,-180.09868600000001
1074,1075,0.09267375,-0.0325637,2101.46875,-70.634819,-156.2171095
1075,1076,0.09927825000000001,-0.030370750000000002,2101.46875,-75.50618739999999,-132.335529
1076,1077,0.1051165,-0.02696255,2101.46875,-80.377552,-108.45394885000002
1077,1078,0.1110555,-0.02338085,2101.46875,-85.2489166,-84.5723686
1078,1079,0.1153645,-0.0185273,2101.46875,-90.120285,-60.69078825
1079,1080,0.06930594999999999,-0.0137772,2076.364625,-2.43568468,-490.559204
1080,1081,0.07415695,-0.0208552,2076.364625,-7.307051179999999,-466.67762749999997
1081,1082,0.0734324,-0.0237891,2076.364625,-12.1784177,-442.796051
1082,1083,0.0696847,-0.026592849999999998,2076.364625,-17.049784199999998,-418.9144745
1083,1084,0.06714229999999999,-0.029680250000000002,2076.364625,-21.9211502,-395.032898
1084,1085,0.06303314999999998,-0.031221,2076.364625,-26.7925167,-371.1513215
1085,1086,0.06163225,-0.03336065,2076.364625,-31.6638832,-347.26974500000006
1086,1087,0.05977095,-0.034009,2076.364625,-36.535251599999995,-323.388153
1087,1088,0.06118335,-0.0351686,2076.364625,-41.406618099999996,-299.5065765
1088,1089,0.06301435,-0.035136600000000004,2076.364625,-46.277984599999996,-275.625
1089,1090,0.06757664999999999,-0.03547684999999999,2076.364625,-51.14935299999999,-251.743416
1090,1091,0.07264670000000001,-0.03482665,2076.364625,-56.0207195,-227.86183949999997
1091,1092,0.0795075,-0.03442415,2076.364625,-60.89208599999999,-203.98026249999998
1092,1093,0.0864915,-0.033066399999999996,2076.364625,-65.7634525,-180.09868600000001
1093,1094,0.09448200000000001,-0.03182765,2076.364625,-70.634819,-156.2171095
1094,1095,0.102129,-0.0295666,2076.364625,-75.50618739999999,-132.335529
1095,1096,0.11008400000000002,-0.0272286,2076.364625,-80.377552,-108.45394885000002
1096,1097,0.117101,-0.023884400000000004,2076.364625,-85.2489166,-84.5723686
1097,1098,0.12372750000000002,-0.02002695,2076.364625,-90.120285,-60.69078825
1098,1099,0.07766705,-0.01265875,2051.260435,-2.43568468,-490.559204
1099,1100,0.07681320000000001,-0.018890499999999998,2051.260435,-7.307051179999999,-466.67762749999997
1100,1101,0.0763553,-0.0237235,2051.260435,-12.1784177,-442.796051
1101,1102,0.07328075,-0.026935,2051.260435,-17.049784199999998,-418.9144745
1102,1103,0.06815485,-0.0289504,2051.260435,-21.9211502,-395.032898
1103,1104,0.06470285,-0.0312889,2051.260435,-26.7925167,-371.1513215
1104,1105,0.06021649999999999,-0.032087950000000004,2051.260435,-31.6638832,-347.26974500000006
1105,1106,0.0590452,-0.03340315,2051.260435,-36.535251599999995,-323.388153
1106,1107,0.0584266,-0.03354735,2051.260435,-41.406618099999996,-299.5065765
1107,1108,0.06117739999999999,-0.0341017,2051.260435,-46.277984599999996,-275.625
1108,1109,0.06517229999999999,-0.0338194,2051.260435,-51.14935299999999,-251.743416
1109,1110,0.0715263,-0.033830799999999994,2051.260435,-56.0207195,-227.86183949999997
1110,1111,0.07868165,-0.033117150000000005,2051.260435,-60.89208599999999,-203.98026249999998
1111,1112,0.08722705,-0.032597749999999995,2051.260435,-65.7634525,-180.09868600000001
1112,1113,0.09588135,-0.03127005,2051.260435,-70.634819,-156.2171095
1113,1114,0.105192,-0.02997865,2051.260435,-75.50618739999999,-132.335529
1114,1115,0.1139905,-0.0277443,2051.260435,-80.377552,-108.45394885000002
1115,1116,0.1225055,-0.02515925,2051.260435,-85.2489166,-84.5723686
1116,1117,0.1298645,-0.02174855,2051.260435,-90.120285,-60.69078825
1117,1118,0.0832601,-0.01068295,2026.15625,-2.43568468,-490.559204
1118,1119,0.0820678,-0.01760585,2026.15625,-7.307051179999999,-466.67762749999997
1119,1120,0.07889884999999999,-0.02290475,2026.15625,-12.1784177,-442.796051
1120,1121,0.07480425,-0.026331149999999998,2026.15625,-17.049784199999998,-418.9144745
1121,1122,0.07044035,-0.02931705,2026.15625,-21.9211502,-395.032898
1122,1123,0.0641664,-0.030482749999999996,2026.15625,-26.7925167,-371.1513215
1123,1124,0.0606795,-0.0320037,2026.15625,-31.6638832,-347.26974500000006
1124,1125,0.057123499999999994,-0.0322449,2026.15625,-36.535251599999995,-323.388153
1125,1126,0.057209600000000006,-0.03286215,2026.15625,-41.406618099999996,-299.5065765
1126,1127,0.059021699999999996,-0.03276475,2026.15625,-46.277984599999996,-275.625
1127,1128,0.0637858,-0.03294995,2026.15625,-51.14935299999999,-251.743416
1128,1129,0.07020210000000002,-0.03265835,2026.15625,-56.0207195,-227.86183949999997
1129,1130,0.0783929,-0.032575599999999996,2026.15625,-60.89208599999999,-203.98026249999998
1130,1131,0.08731575,-0.031985849999999996,2026.15625,-65.7634525,-180.09868600000001
1131,1132,0.09728134999999999,-0.031517050000000005,2026.15625,-70.634819,-156.2171095
1132,1133,0.107122,-0.030278600000000003,2026.15625,-75.50618739999999,-132.335529
1133,1134,0.1172395,-0.028886600000000002,2026.15625,-80.377552,-108.45394885000002
1134,1135,0.12660300000000002,-0.0264367,2026.15625,-85.2489166,-84.5723686
1135,1136,0.134794,-0.02312165,2026.15625,-90.120285,-60.69078825
1136,1137,0.09176205000000001,-0.009004325,2001.052065,-2.43568468,-490.559204
1137,1138,0.08635464999999999,-0.0164698,2001.052065,-7.307051179999999,-466.67762749999997
1138,1139,0.0822889,-0.0217768,2001.052065,-12.1784177,-442.796051
1139,1140,0.07739399999999999,-0.0265684,2001.052065,-17.049784199999998,-418.9144745
1140,1141,0.07023275000000001,-0.0285911,2001.052065,-21.9211502,-395.032898
1141,1142,0.06523904999999999,-0.03067405,2001.052065,-26.7925167,-371.1513215
1142,1143,0.05896585000000001,-0.0310602,2001.052065,-31.6638832,-347.26974500000006
1143,1144,0.0562449,-0.0316801,2001.052065,-36.535251599999995,-323.388153
1144,1145,0.0551043,-0.03164545,2001.052065,-41.406618099999996,-299.5065765
1145,1146,0.05731865,-0.03180285,2001.052065,-46.277984599999996,-275.625
1146,1147,0.062055200000000005,-0.0317248,2001.052065,-51.14935299999999,-251.743416
1147,1148,0.06896065,-0.031795500000000004,2001.052065,-56.0207195,-227.86183949999997
1148,1149,0.07744245,-0.031699950000000005,2001.052065,-60.89208599999999,-203.98026249999998
1149,1150,0.08720049999999999,-0.0317211,2001.052065,-65.7634525,-180.09868600000001
1150,1151,0.09739980000000001,-0.03136875,2001.052065,-70.634819,-156.2171095
1151,1152,0.10850699999999999,-0.031029650000000006,2001.052065,-75.50618739999999,-132.335529
1152,1153,0.11915250000000002,-0.029729949999999998,2001.052065,-80.377552,-108.45394885000002
1153,1154,0.1297365,-0.0279554,2001.052065,-85.2489166,-84.5723686
1154,1155,0.1394365,-0.0246054,2001.052065,-90.120285,-60.69078825
1155,1156,0.09828335,-0.007782155,1975.9479350000001,-2.43568468,-490.559204
1156,1157,0.09318665,-0.0150477,1975.9479350000001,-7.307051179999999,-466.67762749999997
1157,1158,0.08667745,-0.0224034,1975.9479350000001,-12.1784177,-442.796051
1158,1159,0.07823555,-0.025726900000000004,1975.9479350000001,-17.049784199999998,-418.9144745
1159,1160,0.072132,-0.029132650000000003,1975.9479350000001,-21.9211502,-395.032898
1160,1161,0.06324865,-0.029773550000000003,1975.9479350000001,-26.7925167,-371.1513215
1161,1162,0.058098550000000006,-0.03042785,1975.9479350000001,-31.6638832,-347.26974500000006
1162,1163,0.0537883,-0.0304129,1975.9479350000001,-36.535251599999995,-323.388153
1163,1164,0.052883799999999995,-0.030396399999999997,1975.9479350000001,-41.406618099999996,-299.5065765
1164,1165,0.05509435,-0.03038225,1975.9479350000001,-46.277984599999996,-275.625
1165,1166,0.05984505,-0.030373749999999998,1975.9479350000001,-51.14935299999999,-251.743416
1166,1167,0.0671912,-0.0305268,1975.9479350000001,-56.0207195,-227.86183949999997
1167,1168,0.07593795,-0.030698549999999998,1975.9479350000001,-60.89208599999999,-203.98026249999998
1168,1169,0.08590729999999999,-0.03094715,1975.9479350000001,-65.7634525,-180.09868600000001
1169,1170,0.0969412,-0.03120855,1975.9479350000001,-70.634819,-156.2171095
1170,1171,0.1080545,-0.031130150000000002,1975.9479350000001,-75.50618739999999,-132.335529
1171,1172,0.12036500000000001,-0.030947699999999995,1975.9479350000001,-80.377552,-108.45394885000002
1172,1173,0.13185449999999999,-0.02921535,1975.9479350000001,-85.2489166,-84.5723686
1173,1174,0.14318999999999998,-0.0265877,1975.9479350000001,-90.120285,-60.69078825
1174,1175,0.10863399999999998,-0.006198305,1950.84375,-2.43568468,-490.559204
1175,1176,0.10012689999999999,-0.0163542,1950.84375,-7.307051179999999,-466.67762749999997
1176,1177,0.09007394999999999,-0.02163735,1950.84375,-12.1784177,-442.796051
1177,1178,0.08235955,-0.02747575,1950.84375,-17.049784199999998,-418.9144745
1178,1179,0.06973019999999999,-0.0283196,1950.84375,-21.9211502,-395.032898
1179,1180,0.06235405000000001,-0.02899635,1950.84375,-26.7925167,-371.1513215
1180,1181,0.054923,-0.028999650000000002,1950.84375,-31.6638832,-347.26974500000006
1181,1182,0.050786399999999995,-0.0286882,1950.84375,-36.535251599999995,-323.388153
1182,1183,0.049903,-0.028669850000000004,1950.84375,-41.406618099999996,-299.5065765
1183,1184,0.05175684999999999,-0.0284175,1950.84375,-46.277984599999996,-275.625
1184,1185,0.057285649999999994,-0.028641949999999996,1950.84375,-51.14935299999999,-251.743416
1185,1186,0.0643781,-0.02870955,1950.84375,-56.0207195,-227.86183949999997
1186,1187,0.07362160000000001,-0.0292345,1950.84375,-60.89208599999999,-203.98026249999998
1187,1188,0.08377479999999998,-0.029646099999999998,1950.84375,-65.7634525,-180.09868600000001
1188,1189,0.0947676,-0.030346949999999998,1950.84375,-70.634819,-156.2171095
1189,1190,0.1069865,-0.03094075,1950.84375,-75.50618739999999,-132.335529
1190,1191,0.1189645,-0.03119455,1950.84375,-80.377552,-108.45394885000002
1191,1192,0.1332975,-0.03130465,1950.84375,-85.2489166,-84.5723686
1192,1193,0.14634400000000003,-0.028681349999999998,1950.84375,-90.120285,-60.69078825
1193,1194,0.117798,-0.006847155000000001,1925.739565,-2.43568468,-490.559204
1194,1195,0.1085895,-0.01580865,1925.739565,-7.307051179999999,-466.67762749999997
1195,1196,0.09848575000000001,-0.0264281,1925.739565,-12.1784177,-442.796051
1196,1197,0.07905494999999998,-0.02714925,1925.739565,-17.049784199999998,-418.9144745
1197,1198,0.06895735,-0.027384600000000002,1925.739565,-21.9211502,-395.032898
1198,1199,0.058281849999999996,-0.027389700000000003,1925.739565,-26.7925167,-371.1513215
1199,1200,0.050966449999999996,-0.026591599999999996,1925.739565,-31.6638832,-347.26974500000006
1200,1201,0.046805650000000004,-0.026575849999999998,1925.739565,-36.535251599999995,-323.388153
1201,1202,0.04519815,-0.0259668,1925.739565,-41.406618099999996,-299.5065765
1202,1203,0.04823835,-0.026184950000000002,1925.739565,-46.277984599999996,-275.625
1203,1204,0.0531219,-0.02600085,1925.739565,-51.14935299999999,-251.743416
1204,1205,0.0612138,-0.026576499999999996,1925.739565,-56.0207195,-227.86183949999997
1205,1206,0.07008895000000001,-0.026854549999999998,1925.739565,-60.89208599999999,-203.98026249999998
1206,1207,0.0805689,-0.02783205,1925.739565,-65.7634525,-180.09868600000001
1207,1208,0.09175385,-0.028539249999999995,1925.739565,-70.634819,-156.2171095
1208,1209,0.103568,-0.0298258,1925.739565,-75.50618739999999,-132.335529
1209,1210,0.1171495,-0.03083435,1925.739565,-80.377552,-108.45394885000002
1210,1211,0.13032300000000002,-0.0317656,1925.739565,-85.2489166,-84.5723686
1211,1212,0.148678,-0.03265785,1925.739565,-90.120285,-60.69078825
1212,1213,0.136138,-0.005847575,1900.6354350000001,-2.43568468,-490.559204
1213,1214,0.1247875,-0.026961150000000003,1900.6354350000001,-7.307051179999999,-466.67762749999997
1214,1215,0.0922564,-0.02739825,1900.6354350000001,-12.1784177,-442.796051
1215,1216,0.07786689999999999,-0.02555135,1900.6354350000001,-17.049784199999998,-418.9144745
1216,1217,0.0638663,-0.0256395,1900.6354350000001,-21.9211502,-395.032898
1217,1218,0.053243799999999994,-0.0239748,1900.6354350000001,-26.7925167,-371.1513215
1218,1219,0.04601615,-0.024042349999999997,1900.6354350000001,-31.6638832,-347.26974500000006
1219,1220,0.04061529999999999,-0.022988500000000002,1900.6354350000001,-36.535251599999995,-323.388153
1220,1221,0.040510950000000004,-0.02321425,1900.6354350000001,-41.406618099999996,-299.5065765
1221,1222,0.042548050000000004,-0.022718500000000003,1900.6354350000001,-46.277984599999996,-275.625
1222,1223,0.0490455,-0.023250400000000004,1900.6354350000001,-51.14935299999999,-251.743416
1223,1224,0.05646799999999999,-0.02327515,1900.6354350000001,-56.0207195,-227.86183949999997
1224,1225,0.06621615,-0.0242282,1900.6354350000001,-60.89208599999999,-203.98026249999998
1225,1226,0.07625805,-0.0247427,1900.6354350000001,-65.7634525,-180.09868600000001
1226,1227,0.087559,-0.026217949999999997,1900.6354350000001,-70.634819,-156.2171095
1227,1228,0.0994739,-0.02718765,1900.6354350000001,-75.50618739999999,-132.335529
1228,1229,0.112207,-0.02929785,1900.6354350000001,-80.377552,-108.45394885000002
1229,1230,0.12733699999999998,-0.03070985,1900.6354350000001,-85.2489166,-84.5723686
1230,1231,0.14246,-0.033388249999999994,1900.6354350000001,-90.120285,-60.69078825
1231,1232,0.167609,-0.0250003,1875.53125,-2.43568468,-490.559204
1232,1233,0.11209549999999999,-0.030627349999999998,1875.53125,-7.307051179999999,-466.67762749999997
1233,1234,0.08810065,-0.022723599999999997,1875.53125,-12.1784177,-442.796051
1234,1235,0.07184065,-0.023550799999999997,1875.53125,-17.049784199999998,-418.9144745
1235,1236,0.05743035,-0.020571399999999997,1875.53125,-21.9211502,-395.032898
1236,1237,0.04779314999999999,-0.0209306,1875.53125,-26.7925167,-371.1513215
1237,1238,0.038609000000000004,-0.019397150000000002,1875.53125,-31.6638832,-347.26974500000006
1238,1239,0.034851150000000004,-0.01971005,1875.53125,-36.535251599999995,-323.388153
1239,1240,0.03312565,-0.01890845,1875.53125,-41.406618099999996,-299.5065765
1240,1241,0.03732735000000001,-0.01939395,1875.53125,-46.277984599999996,-275.625
1241,1242,0.043079000000000006,-0.019149350000000002,1875.53125,-51.14935299999999,-251.743416
1242,1243,0.05197645,-0.019971499999999996,1875.53125,-56.0207195,-227.86183949999997
1243,1244,0.061102050000000005,-0.020221999999999997,1875.53125,-60.89208599999999,-203.98026249999998
1244,1245,0.07182135,-0.02152015,1875.53125,-65.7634525,-180.09868600000001
1245,1246,0.0825081,-0.022212449999999998,1875.53125,-70.634819,-156.2171095
1246,1247,0.0944884,-0.0241843,1875.53125,-75.50618739999999,-132.335529
1247,1248,0.10677,-0.02524975,1875.53125,-80.377552,-108.45394885000002
1248,1249,0.12090500000000001,-0.0284526,1875.53125,-85.2489166,-84.5723686
1249,1250,0.13692500000000002,-0.02969415,1875.53125,-90.120285,-60.69078825
1250,1251,0.10500155,-0.0061852700000000005,1850.427065,-2.43568468,-490.559204
1251,1252,0.0875524,-0.0122583,1850.427065,-7.307051179999999,-466.67762749999997
1252,1253,0.08588775,-0.02247305,1850.427065,-12.1784177,-442.796051
1253,1254,0.07964589999999999,-0.0269763,1850.427065,-17.049784199999998,-418.9144745
1254,1255,0.0777071,-0.033158850000000004,1850.427065,-21.9211502,-395.032898
1255,1256,0.07327865,-0.0359762,1850.427065,-26.7925167,-371.1513215
1256,1257,0.07335545000000002,-0.0399462,1850.427065,-31.6638832,-347.26974500000006
1257,1258,0.0721505,-0.0413003,1850.427065,-36.535251599999995,-323.388153
1258,1259,0.07563845,-0.04351845,1850.427065,-41.406618099999996,-299.5065765
1259,1260,0.0785933,-0.0435752,1850.427065,-46.277984599999996,-275.625
1260,1261,0.08535685,-0.0442539,1850.427065,-51.14935299999999,-251.743416
1261,1262,0.09170305000000001,-0.0430514,1850.427065,-56.0207195,-227.86183949999997
1262,1263,0.1005665,-0.0422571,1850.427065,-60.89208599999999,-203.98026249999998
1263,1264,0.108803,-0.03966925,1850.427065,-65.7634525,-180.09868600000001
1264,1265,0.1185095,-0.0373004,1850.427065,-70.634819,-156.2171095
1265,1266,0.12729049999999997,-0.03302665,1850.427065,-75.50618739999999,-132.335529
1266,1267,0.136874,-0.0288344,1850.427065,-80.377552,-108.45394885000002
1267,1268,0.1450835,-0.022304499999999998,1850.427065,-85.2489166,-84.5723686
1268,1269,0.1541575,-0.015998199999999997,1850.427065,-90.120285,-60.69078825
1269,1270,0.10913500000000001,-0.01809395,1825.3229350000001,-2.43568468,-490.559204
1270,1271,0.1066575,-0.01620545,1825.3229350000001,-7.307051179999999,-466.67762749999997
1271,1272,0.0929953,-0.020744,1825.3229350000001,-12.1784177,-442.796051
1272,1273,0.08724380000000001,-0.026424250000000003,1825.3229350000001,-17.049784199999998,-418.9144745
1273,1274,0.0781431,-0.0294666,1825.3229350000001,-21.9211502,-395.032898
1274,1275,0.07356850000000001,-0.033724550000000006,1825.3229350000001,-26.7925167,-371.1513215
1275,1276,0.0677835,-0.0354342,1825.3229350000001,-31.6638832,-347.26974500000006
1276,1277,0.06733025000000001,-0.038110450000000004,1825.3229350000001,-36.535251599999995,-323.388153
1277,1278,0.067247,-0.0386489,1825.3229350000001,-41.406618099999996,-299.5065765
1278,1279,0.07230929999999999,-0.039899649999999995,1825.3229350000001,-46.277984599999996,-275.625
1279,1280,0.0781057,-0.03936505,1825.3229350000001,-51.14935299999999,-251.743416
1280,1281,0.08734825,-0.039324200000000004,1825.3229350000001,-56.0207195,-227.86183949999997
1281,1282,0.09678540000000001,-0.03767355,1825.3229350000001,-60.89208599999999,-203.98026249999998
1282,1283,0.108171,-0.036333599999999994,1825.3229350000001,-65.7634525,-180.09868600000001
1283,1284,0.11919199999999999,-0.033378,1825.3229350000001,-70.634819,-156.2171095
1284,1285,0.131322,-0.0305662,1825.3229350000001,-75.50618739999999,-132.335529
1285,1286,0.142538,-0.02601925,1825.3229350000001,-80.377552,-108.45394885000002
1286,1287,0.154745,-0.02144895,1825.3229350000001,-85.2489166,-84.5723686
1287,1288,0.16481849999999998,-0.015049,1825.3229350000001,-90.120285,-60.69078825
1288,1289,0.11071600000000001,-0.01436005,1800.21875,-2.43568468,-490.559204
1289,1290,0.111018,-0.020948550000000003,1800.21875,-7.307051179999999,-466.67762749999997
1290,1291,0.10338900000000001,-0.02210575,1800.21875,-12.1784177,-442.796051
1291,1292,0.09152194999999999,-0.0254057,1800.21875,-17.049784199999998,-418.9144745
1292,1293,0.08324175,-0.0291692,1800.21875,-21.9211502,-395.032898
1293,1294,0.07298170000000001,-0.0310812,1800.21875,-26.7925167,-371.1513215
1294,1295,0.06749839999999999,-0.0339207,1800.21875,-31.6638832,-347.26974500000006
1295,1296,0.062309949999999996,-0.0347426,1800.21875,-36.535251599999995,-323.388153
1296,1297,0.06327935,-0.0363349,1800.21875,-41.406618099999996,-299.5065765
1297,1298,0.06633095,-0.0362721,1800.21875,-46.277984599999996,-275.625
1298,1299,0.0742814,-0.036763950000000004,1800.21875,-51.14935299999999,-251.743416
1299,1300,0.08368160000000001,-0.0358697,1800.21875,-56.0207195,-227.86183949999997
1300,1301,0.09570065,-0.0353534,1800.21875,-60.89208599999999,-203.98026249999998
1301,1302,0.10808399999999999,-0.0335166,1800.21875,-65.7634525,-180.09868600000001
1302,1303,0.1218435,-0.0318964,1800.21875,-70.634819,-156.2171095
1303,1304,0.135223,-0.028912200000000002,1800.21875,-75.50618739999999,-132.335529
1304,1305,0.1494315,-0.025913099999999998,1800.21875,-80.377552,-108.45394885000002
1305,1306,0.1624925,-0.02173985,1800.21875,-85.2489166,-84.5723686
1306,1307,0.1764725,-0.016971600000000003,1800.21875,-90.120285,-60.69078825
1307,1308,0.119564,-0.01318345,1775.114565,-2.43568468,-490.559204
1308,1309,0.11329149999999999,-0.0185202,1775.114565,-7.307051179999999,-466.67762749999997
1309,1310,0.107111,-0.023229149999999997,1775.114565,-12.1784177,-442.796051
1310,1311,0.09730005,-0.025837400000000003,1775.114565,-17.049784199999998,-418.9144745
1311,1312,0.0850784,-0.028132650000000002,1775.114565,-21.9211502,-395.032898
1312,1313,0.07579804999999999,-0.03086695,1775.114565,-26.7925167,-371.1513215
1313,1314,0.0656097,-0.031861799999999996,1775.114565,-31.6638832,-347.26974500000006
1314,1315,0.06109735000000001,-0.0335665,1775.114565,-36.535251599999995,-323.388153
1315,1316,0.058949749999999995,-0.0337627,1775.114565,-41.406618099999996,-299.5065765
1316,1317,0.0632575,-0.0345187,1775.114565,-46.277984599999996,-275.625
1317,1318,0.07076260000000001,-0.034139100000000006,1775.114565,-51.14935299999999,-251.743416
1318,1319,0.0820088,-0.034157599999999996,1775.114565,-56.0207195,-227.86183949999997
1319,1320,0.09471180000000001,-0.03318965,1775.114565,-60.89208599999999,-203.98026249999998
1320,1321,0.10916500000000001,-0.032488050000000004,1775.114565,-65.7634525,-180.09868600000001
1321,1322,0.1238365,-0.030750599999999996,1775.114565,-70.634819,-156.2171095
1322,1323,0.139431,-0.029088750000000003,1775.114565,-75.50618739999999,-132.335529
1323,1324,0.154481,-0.02639565,1775.114565,-80.377552,-108.45394885000002
1324,1325,0.16971450000000002,-0.023326399999999997,1775.114565,-85.2489166,-84.5723686
1325,1326,0.183835,-0.019979649999999998,1775.114565,-90.120285,-60.69078825
1326,1327,0.12444949999999999,-0.010478850000000001,1750.0104350000001,-2.43568468,-490.559204
1327,1328,0.1192105,-0.017308200000000003,1750.0104350000001,-7.307051179999999,-466.67762749999997
1328,1329,0.1099065,-0.0221405,1750.0104350000001,-12.1784177,-442.796051
1329,1330,0.09958885,-0.0255819,1750.0104350000001,-17.049784199999998,-418.9144745
1330,1331,0.08855555000000001,-0.02847595,1750.0104350000001,-21.9211502,-395.032898
1331,1332,0.07543820000000001,-0.0297664,1750.0104350000001,-26.7925167,-371.1513215
1332,1333,0.06644105,-0.0314932,1750.0104350000001,-31.6638832,-347.26974500000006
1333,1334,0.05830895,-0.03179845,1750.0104350000001,-36.535251599999995,-323.388153
1334,1335,0.05688845000000001,-0.032566399999999995,1750.0104350000001,-41.406618099999996,-299.5065765
1335,1336,0.06003525,-0.03245555,1750.0104350000001,-46.277984599999996,-275.625
1336,1337,0.06859315,-0.0326894,1750.0104350000001,-51.14935299999999,-251.743416
1337,1338,0.08029765,-0.0323052,1750.0104350000001,-56.0207195,-227.86183949999997
1338,1339,0.09433605,-0.0321711,1750.0104350000001,-60.89208599999999,-203.98026249999998
1339,1340,0.10944300000000001,-0.03141284999999999,1750.0104350000001,-65.7634525,-180.09868600000001
1340,1341,0.1257365,-0.0307996,1750.0104350000001,-70.634819,-156.2171095
1341,1342,0.1419645,-0.02936185,1750.0104350000001,-75.50618739999999,-132.335529
1342,1343,0.1586255,-0.027770749999999997,1750.0104350000001,-80.377552,-108.45394885000002
1343,1344,0.174604,-0.0253267,1750.0104350000001,-85.2489166,-84.5723686
1344,1345,0.1891425,-0.022078849999999997,1750.0104350000001,-90.120285,-60.69078825
1345,1346,0.1336445,-0.008204905,1724.90625,-2.43568468,-490.559204
1346,1347,0.123121,-0.0156741,1724.90625,-7.307051179999999,-466.67762749999997
1347,1348,0.1140085,-0.02096895,1724.90625,-12.1784177,-442.796051
1348,1349,0.10256000000000001,-0.025768600000000003,1724.90625,-17.049784199999998,-418.9144745
1349,1350,0.08858285,-0.027784150000000004,1724.90625,-21.9211502,-395.032898
1350,1351,0.07705895000000001,-0.029868199999999998,1724.90625,-26.7925167,-371.1513215
1351,1352,0.06426435,-0.030251300000000002,1724.90625,-31.6638832,-347.26974500000006
1352,1353,0.05708479999999999,-0.03086795,1724.90625,-36.535251599999995,-323.388153
1353,1354,0.053882849999999996,-0.03082965,1724.90625,-41.406618099999996,-299.5065765
1354,1355,0.05744585000000001,-0.030980600000000004,1724.90625,-46.277984599999996,-275.625
1355,1356,0.0663528,-0.030898150000000003,1724.90625,-51.14935299999999,-251.743416
1356,1357,0.0786351,-0.030960349999999998,1724.90625,-56.0207195,-227.86183949999997
1357,1358,0.09329165,-0.030865049999999998,1724.90625,-60.89208599999999,-203.98026249999998
1358,1359,0.109347,-0.030881900000000004,1724.90625,-65.7634525,-180.09868600000001
1359,1360,0.1259805,-0.0305533,1724.90625,-70.634819,-156.2171095
1360,1361,0.14359850000000002,-0.030238050000000002,1724.90625,-75.50618739999999,-132.335529
1361,1362,0.160817,-0.0290363,1724.90625,-80.377552,-108.45394885000002
1362,1363,0.177836,-0.02738845,1724.90625,-85.2489166,-84.5723686
1363,1364,0.19391799999999998,-0.024287950000000003,1724.90625,-90.120285,-60.69078825
1364,1365,0.139724,-0.006391185,1699.802065,-2.43568468,-490.559204
1365,1366,0.1308345,-0.013731599999999998,1699.802065,-7.307051179999999,-466.67762749999997
1366,1367,0.1183655,-0.02157435,1699.802065,-12.1784177,-442.796051
1367,1368,0.1035785,-0.024862449999999998,1699.802065,-17.049784199999998,-418.9144745
1368,1369,0.09073919999999999,-0.02836795,1699.802065,-21.9211502,-395.032898
1369,1370,0.0745197,-0.028877399999999998,1699.802065,-26.7925167,-371.1513215
1370,1371,0.0632658,-0.0293238,1699.802065,-31.6638832,-347.26974500000006
1371,1372,0.05377775,-0.02923925,1699.802065,-36.535251599999995,-323.388153
1372,1373,0.05074745,-0.029063699999999998,1699.802065,-41.406618099999996,-299.5065765
1373,1374,0.0545968,-0.02905585,1699.802065,-46.277984599999996,-275.625
1374,1375,0.06343675,-0.0289856,1699.802065,-51.14935299999999,-251.743416
1375,1376,0.07661265,-0.029226749999999996,1699.802065,-56.0207195,-227.86183949999997
1376,1377,0.09147140000000001,-0.029437699999999997,1699.802065,-60.89208599999999,-203.98026249999998
1377,1378,0.10785750000000001,-0.02987215,1699.802065,-65.7634525,-180.09868600000001
1378,1379,0.125323,-0.03029025,1699.802065,-70.634819,-156.2171095
1379,1380,0.1428815,-0.030508149999999998,1699.802065,-75.50618739999999,-132.335529
1380,1381,0.1617135,-0.03063775,1699.802065,-80.377552,-108.45394885000002
1381,1382,0.1797125,-0.029214749999999998,1699.802065,-85.2489166,-84.5723686
1382,1383,0.19719599999999998,-0.026939699999999997,1699.802065,-90.120285,-60.69078825
1383,1384,0.151142,-0.00406329,1674.6979350000001,-2.43568468,-490.559204
1384,1385,0.1377175,-0.015139449999999999,1674.6979350000001,-7.307051179999999,-466.67762749999997
1385,1386,0.12210099999999999,-0.0205173,1674.6979350000001,-12.1784177,-442.796051
1386,1387,0.10777799999999998,-0.02697165,1674.6979350000001,-17.049784199999998,-418.9144745
1387,1388,0.08733350000000001,-0.02753075,1674.6979350000001,-21.9211502,-395.032898
1388,1389,0.0733878,-0.02781355,1674.6979350000001,-26.7925167,-371.1513215
1389,1390,0.059019,-0.027617700000000002,1674.6979350000001,-31.6638832,-347.26974500000006
1390,1391,0.0498256,-0.026913949999999996,1674.6979350000001,-36.535251599999995,-323.388153
1391,1392,0.04685059999999999,-0.02684025,1674.6979350000001,-41.406618099999996,-299.5065765
1392,1393,0.05017315,-0.0263807,1674.6979350000001,-46.277984599999996,-275.625
1393,1394,0.06048345,-0.026700549999999997,1674.6979350000001,-51.14935299999999,-251.743416
1394,1395,0.07323235,-0.0267558,1674.6979350000001,-56.0207195,-227.86183949999997
1395,1396,0.0888111,-0.027543150000000002,1674.6979350000001,-60.89208599999999,-203.98026249999998
1396,1397,0.1052505,-0.028142850000000004,1674.6979350000001,-65.7634525,-180.09868600000001
1397,1398,0.1225505,-0.0292975,1674.6979350000001,-70.634819,-156.2171095
1398,1399,0.141156,-0.03031085,1674.6979350000001,-75.50618739999999,-132.335529
1399,1400,0.15938999999999998,-0.03117125,1674.6979350000001,-80.377552,-108.45394885000002
1400,1401,0.18025049999999998,-0.03194134999999999,1674.6979350000001,-85.2489166,-84.5723686
1401,1402,0.199664,-0.02970805,1674.6979350000001,-90.120285,-60.69078825
1402,1403,0.16019899999999998,-0.00470008,1649.59375,-2.43568468,-490.559204
1403,1404,0.1472645,-0.0140905,1649.59375,-7.307051179999999,-466.67762749999997
1404,1405,0.130818,-0.02651045,1649.59375,-12.1784177,-442.796051
1405,1406,0.1025875,-0.0267354,1649.59375,-17.049784199999998,-418.9144745
1406,1407,0.08608964999999999,-0.02629855,1649.59375,-21.9211502,-395.032898
1407,1408,0.06779365000000001,-0.025930499999999995,1649.59375,-26.7925167,-371.1513215
1408,1409,0.0540708,-0.0244341,1649.59375,-31.6638832,-347.26974500000006
1409,1410,0.0444805,-0.024244349999999998,1649.59375,-36.535251599999995,-323.388153
1410,1411,0.04048745,-0.023203849999999998,1649.59375,-41.406618099999996,-299.5065765
1411,1412,0.0459012,-0.0234556,1649.59375,-46.277984599999996,-275.625
1412,1413,0.05543835,-0.023123900000000003,1649.59375,-51.14935299999999,-251.743416
1413,1414,0.0696716,-0.02395395,1649.59375,-56.0207195,-227.86183949999997
1414,1415,0.08467675,-0.02435945,1649.59375,-60.89208599999999,-203.98026249999998
1415,1416,0.10136339999999999,-0.02584505,1649.59375,-65.7634525,-180.09868600000001
1416,1417,0.1187055,-0.026972049999999997,1649.59375,-70.634819,-156.2171095
1417,1418,0.13650800000000002,-0.02905325,1649.59375,-75.50618739999999,-132.335529
1418,1419,0.156348,-0.0308153,1649.59375,-80.377552,-108.45394885000002
1419,1420,0.17542649999999999,-0.032753050000000006,1649.59375,-85.2489166,-84.5723686
1420,1421,0.2005805,-0.034761600000000004,1649.59375,-90.120285,-60.69078825
1421,1422,0.1815045,-0.00284848,1624.489565,-2.43568468,-490.559204
1422,1423,0.164979,-0.02834705,1624.489565,-7.307051179999999,-466.67762749999997
1423,1424,0.1210205,-0.02800125,1624.489565,-12.1784177,-442.796051
1424,1425,0.10060635,-0.024724000000000003,1624.489565,-17.049784199999998,-418.9144745
1425,1426,0.0788627,-0.024240699999999997,1624.489565,-21.9211502,-395.032898
1426,1427,0.061729,-0.021445899999999997,1624.489565,-26.7925167,-371.1513215
1427,1428,0.047475500000000004,-0.021187150000000002,1624.489565,-31.6638832,-347.26974500000006
1428,1429,0.036265450000000005,-0.01941435,1624.489565,-36.535251599999995,-323.388153
1429,1430,0.034271300000000005,-0.01956215,1624.489565,-41.406618099999996,-299.5065765
1430,1431,0.03867875,-0.018719100000000002,1624.489565,-46.277984599999996,-275.625
1431,1432,0.050851549999999995,-0.019430299999999998,1624.489565,-51.14935299999999,-251.743416
1432,1433,0.06430825,-0.01944845,1624.489565,-56.0207195,-227.86183949999997
1433,1434,0.0802359,-0.0208686,1624.489565,-60.89208599999999,-203.98026249999998
1434,1435,0.09626984999999999,-0.021716149999999997,1624.489565,-65.7634525,-180.09868600000001
1435,1436,0.113362,-0.02400235,1624.489565,-70.634819,-156.2171095
1436,1437,0.131121,-0.0256767,1624.489565,-75.50618739999999,-132.335529
1437,1438,0.14939249999999998,-0.02901785,1624.489565,-80.377552,-108.45394885000002
1438,1439,0.170591,-0.03156355,1624.489565,-85.2489166,-84.5723686
1439,1440,0.19112,-0.0359398,1624.489565,-90.120285,-60.69078825
1440,1441,0.21802900000000003,-0.028034200000000002,1599.3854350000001,-2.43568468,-490.559204
1441,1442,0.1459715,-0.0335439,1599.3854350000001,-7.307051179999999,-466.67762749999997
1442,1443,0.115437,-0.022202649999999997,1599.3854350000001,-12.1784177,-442.796051
1443,1444,0.09188360000000001,-0.022319600000000002,1599.3854350000001,-17.049784199999998,-418.9144745
1444,1445,0.07134875,-0.0175974,1599.3854350000001,-21.9211502,-395.032898
1445,1446,0.05471045000000001,-0.017475949999999997,1599.3854350000001,-26.7925167,-371.1513215
1446,1447,0.03856345,-0.014889300000000001,1599.3854350000001,-31.6638832,-347.26974500000006
1447,1448,0.02846295,-0.014987049999999998,1599.3854350000001,-36.535251599999995,-323.388153
1448,1449,0.024118349999999997,-0.01359925,1599.3854350000001,-41.406618099999996,-299.5065765
1449,1450,0.0324927,-0.01414505,1599.3854350000001,-46.277984599999996,-275.625
1450,1451,0.04433665,-0.013709349999999999,1599.3854350000001,-51.14935299999999,-251.743416
1451,1452,0.059551099999999996,-0.01489185,1599.3854350000001,-56.0207195,-227.86183949999997
1452,1453,0.07469295000000001,-0.015325749999999999,1599.3854350000001,-60.89208599999999,-203.98026249999998
1453,1454,0.0910629,-0.017335450000000002,1599.3854350000001,-65.7634525,-180.09868600000001
1454,1455,0.10729649999999999,-0.0186015,1599.3854350000001,-70.634819,-156.2171095
1455,1456,0.1245275,-0.02172785,1599.3854350000001,-75.50618739999999,-132.335529
1456,1457,0.142169,-0.02380015,1599.3854350000001,-80.377552,-108.45394885000002
1457,1458,0.1613635,-0.0287922,1599.3854350000001,-85.2489166,-84.5723686
1458,1459,0.18300899999999998,-0.0315058,1599.3854350000001,-90.120285,-60.69078825
1459,1460,0.15081850000000002,0.00173025,1574.28125,-2.43568468,-490.559204
1460,1461,0.120232,-0.00556856,1574.28125,-7.307051179999999,-466.67762749999997
1461,1462,0.11315700000000001,-0.0183421,1574.28125,-12.1784177,-442.796051
1462,1463,0.1018,-0.025643,1574.28125,-17.049784199999998,-418.9144745
1463,1464,0.09327179999999999,-0.032015600000000005,1574.28125,-21.9211502,-395.032898
1464,1465,0.08558195,-0.03723214999999999,1574.28125,-26.7925167,-371.1513215
1465,1466,0.0791636,-0.04045445,1574.28125,-31.6638832,-347.26974500000006
1466,1467,0.07712134999999999,-0.04345154999999999,1574.28125,-36.535251599999995,-323.388153
1467,1468,0.0776926,-0.04478435,1574.28125,-41.406618099999996,-299.5065765
1468,1469,0.08334935,-0.0459936,1574.28125,-46.277984599999996,-275.625
1469,1470,0.09159735,-0.045962199999999995,1574.28125,-51.14935299999999,-251.743416
1470,1471,0.103076,-0.045709200000000005,1574.28125,-56.0207195,-227.86183949999997
1471,1472,0.1158215,-0.044358800000000004,1574.28125,-60.89208599999999,-203.98026249999998
1472,1473,0.1300305,-0.0425863,1574.28125,-65.7634525,-180.09868600000001
1473,1474,0.144528,-0.03960760000000001,1574.28125,-70.634819,-156.2171095
1474,1475,0.1592085,-0.035767099999999996,1574.28125,-75.50618739999999,-132.335529
1475,1476,0.17389949999999998,-0.030637199999999996,1574.28125,-80.377552,-108.45394885000002
1476,1477,0.1873015,-0.0235584,1574.28125,-85.2489166,-84.5723686
1477,1478,0.20181,-0.01591445,1574.28125,-90.120285,-60.69078825
1478,1479,0.149385,-0.01544405,1549.177065,-2.43568468,-490.559204
1479,1480,0.14674349999999997,-0.010101255,1549.177065,-7.307051179999999,-466.67762749999997
1480,1481,0.12343,-0.017666049999999996,1549.177065,-12.1784177,-442.796051
1481,1482,0.112286,-0.023336000000000003,1549.177065,-17.049784199999998,-418.9144745
1482,1483,0.09725455,-0.0290875,1549.177065,-21.9211502,-395.032898
1483,1484,0.08461545000000001,-0.0324324,1549.177065,-26.7925167,-371.1513215
1484,1485,0.074906,-0.03585645,1549.177065,-31.6638832,-347.26974500000006
1485,1486,0.0680734,-0.037467,1549.177065,-36.535251599999995,-323.388153
1486,1487,0.0678858,-0.039084400000000005,1549.177065,-41.406618099999996,-299.5065765
1487,1488,0.072576,-0.03953885,1549.177065,-46.277984599999996,-275.625
1488,1489,0.08266465,-0.03988585,1549.177065,-51.14935299999999,-251.743416
1489,1490,0.0956538,-0.0393384,1549.177065,-56.0207195,-227.86183949999997
1490,1491,0.11105599999999999,-0.038566699999999995,1549.177065,-60.89208599999999,-203.98026249999998
1491,1492,0.1275305,-0.03686615,1549.177065,-65.7634525,-180.09868600000001
1492,1493,0.14488850000000003,-0.03477475,1549.177065,-70.634819,-156.2171095
1493,1494,0.1627345,-0.0314574,1549.177065,-75.50618739999999,-132.335529
1494,1495,0.18002200000000002,-0.02738085,1549.177065,-80.377552,-108.45394885000002
1495,1496,0.19864300000000001,-0.0218036,1549.177065,-85.2489166,-84.5723686
1496,1497,0.21383600000000003,-0.0148878,1549.177065,-90.120285,-60.69078825
1497,1498,0.15201900000000002,-0.010744299999999998,1524.0729350000001,-2.43568468,-490.559204
1498,1499,0.149654,-0.0193091,1524.0729350000001,-7.307051179999999,-466.67762749999997
1499,1500,0.1385995,-0.0182071,1524.0729350000001,-12.1784177,-442.796051
1500,1501,0.1192375,-0.0249495,1524.0729350000001,-17.049784199999998,-418.9144745
1501,1502,0.10256,-0.026990100000000003,1524.0729350000001,-21.9211502,-395.032898
1502,1503,0.08658385,-0.030805449999999998,1524.0729350000001,-26.7925167,-371.1513215
1503,1504,0.07172815,-0.0319478,1524.0729350000001,-31.6638832,-347.26974500000006
1504,1505,0.0627817,-0.0335973,1524.0729350000001,-36.535251599999995,-323.388153
1505,1506,0.0594123,-0.03408515,1524.0729350000001,-41.406618099999996,-299.5065765
1506,1507,0.0644554,-0.034655649999999996,1524.0729350000001,-46.277984599999996,-275.625
1507,1508,0.07533295000000001,-0.034586399999999996,1524.0729350000001,-51.14935299999999,-251.743416
1508,1509,0.09036079999999999,-0.034454200000000004,1524.0729350000001,-56.0207195,-227.86183949999997
1509,1510,0.1075995,-0.0337543,1524.0729350000001,-60.89208599999999,-203.98026249999998
1510,1511,0.12637500000000002,-0.032955899999999996,1524.0729350000001,-65.7634525,-180.09868600000001
1511,1512,0.1459095,-0.0313308,1524.0729350000001,-70.634819,-156.2171095
1512,1513,0.16602999999999998,-0.02965765,1524.0729350000001,-75.50618739999999,-132.335529
1513,1514,0.1868285,-0.026372899999999998,1524.0729350000001,-80.377552,-108.45394885000002
1514,1515,0.20640150000000002,-0.023204299999999997,1524.0729350000001,-85.2489166,-84.5723686
1515,1516,0.2280455,-0.01741845,1524.0729350000001,-90.120285,-60.69078825
1516,1517,0.1608145,-0.01004293,1498.96875,-2.43568468,-490.559204
1517,1518,0.154754,-0.0153721,1498.96875,-7.307051179999999,-466.67762749999997
1518,1519,0.143589,-0.0243266,1498.96875,-12.1784177,-442.796051
1519,1520,0.125212,-0.02396755,1498.96875,-17.049784199999998,-418.9144745
1520,1521,0.10680250000000001,-0.0287571,1498.96875,-21.9211502,-395.032898
1521,1522,0.08612525,-0.0285262,1498.96875,-26.7925167,-371.1513215
1522,1523,0.07037055,-0.029908999999999998,1498.96875,-31.6638832,-347.26974500000006
1523,1524,0.057193350000000004,-0.029837000000000002,1498.96875,-36.535251599999995,-323.388153
1524,1525,0.052808100000000004,-0.0301966,1498.96875,-41.406618099999996,-299.5065765
1525,1526,0.05730075,-0.030150450000000002,1498.96875,-46.277984599999996,-275.625
1526,1527,0.0694057,-0.030196300000000002,1498.96875,-51.14935299999999,-251.743416
1527,1528,0.08591925,-0.03005195,1498.96875,-56.0207195,-227.86183949999997
1528,1529,0.104792,-0.0299583,1498.96875,-60.89208599999999,-203.98026249999998
1529,1530,0.124948,-0.029563099999999995,1498.96875,-65.7634525,-180.09868600000001
1530,1531,0.146249,-0.029376949999999995,1498.96875,-70.634819,-156.2171095
1531,1532,0.167878,-0.028315899999999998,1498.96875,-75.50618739999999,-132.335529
1532,1533,0.190488,-0.027966099999999997,1498.96875,-80.377552,-108.45394885000002
1533,1534,0.21314150000000004,-0.025003450000000003,1498.96875,-85.2489166,-84.5723686
1534,1535,0.23471350000000002,-0.02362665,1498.96875,-90.120285,-60.69078825
1535,1536,0.171246,-0.00607728,1473.864565,-2.43568468,-490.559204
1536,1537,0.1625525,-0.0187854,1473.864565,-7.307051179999999,-466.67762749999997
1537,1538,0.146117,-0.02170595,1473.864565,-12.1784177,-442.796051
1538,1539,0.13021049999999998,-0.02922335,1473.864565,-17.049784199999998,-418.9144745
1539,1540,0.10453799999999999,-0.02721525,1473.864565,-21.9211502,-395.032898
1540,1541,0.08585875,-0.028067099999999998,1473.864565,-26.7925167,-371.1513215
1541,1542,0.06580595,-0.02690325,1473.864565,-31.6638832,-347.26974500000006
1542,1543,0.05220585,-0.026626550000000002,1473.864565,-36.535251599999995,-323.388153
1543,1544,0.045813400000000004,-0.026143100000000002,1473.864565,-41.406618099999996,-299.5065765
1544,1545,0.05064545,-0.0259192,1473.864565,-46.277984599999996,-275.625
1545,1546,0.0640655,-0.0258535,1473.864565,-51.14935299999999,-251.743416
1546,1547,0.0816884,-0.025924350000000002,1473.864565,-56.0207195,-227.86183949999997
1547,1548,0.1016095,-0.02615375,1473.864565,-60.89208599999999,-203.98026249999998
1548,1549,0.122822,-0.026629100000000003,1473.864565,-65.7634525,-180.09868600000001
1549,1550,0.1445345,-0.02703745,1473.864565,-70.634819,-156.2171095
1550,1551,0.167665,-0.028097,1473.864565,-75.50618739999999,-132.335529
1551,1552,0.1902285,-0.02818255,1473.864565,-80.377552,-108.45394885000002
1552,1553,0.2155425,-0.029875399999999996,1473.864565,-85.2489166,-84.5723686
1553,1554,0.23823850000000002,-0.02736165,1473.864565,-90.120285,-60.69078825
1554,1555,0.1824585,-0.00654336,1448.7604350000001,-2.43568468,-490.559204
1555,1556,0.17075849999999998,-0.015954450000000002,1448.7604350000001,-7.307051179999999,-466.67762749999997
1556,1557,0.155561,-0.0301789,1448.7604350000001,-12.1784177,-442.796051
1557,1558,0.122658,-0.02779635,1448.7604350000001,-17.049784199999998,-418.9144745
1558,1559,0.103514,-0.0275094,1448.7604350000001,-21.9211502,-395.032898
1559,1560,0.07942455000000001,-0.0251755,1448.7604350000001,-26.7925167,-371.1513215
1560,1561,0.06094695,-0.023808799999999998,1448.7604350000001,-31.6638832,-347.26974500000006
1561,1562,0.0449126,-0.02258355,1448.7604350000001,-36.535251599999995,-323.388153
1562,1563,0.038073899999999994,-0.02170665,1448.7604350000001,-41.406618099999996,-299.5065765
1563,1564,0.0439968,-0.0213269,1448.7604350000001,-46.277984599999996,-275.625
1564,1565,0.0585032,-0.021135599999999997,1448.7604350000001,-51.14935299999999,-251.743416
1565,1566,0.07735320000000001,-0.021451400000000002,1448.7604350000001,-56.0207195,-227.86183949999997
1566,1567,0.09778809999999999,-0.0220022,1448.7604350000001,-60.89208599999999,-203.98026249999998
1567,1568,0.11913750000000001,-0.0230156,1448.7604350000001,-65.7634525,-180.09868600000001
1568,1569,0.141451,-0.024474250000000003,1448.7604350000001,-70.634819,-156.2171095
1569,1570,0.16356199999999999,-0.0262243,1448.7604350000001,-75.50618739999999,-132.335529
1570,1571,0.18799149999999998,-0.02889895,1448.7604350000001,-80.377552,-108.45394885000002
1571,1572,0.210373,-0.0309413,1448.7604350000001,-85.2489166,-84.5723686
1572,1573,0.239361,-0.0346251,1448.7604350000001,-90.120285,-60.69078825
1573,1574,0.205382,-0.00364524,1423.65625,-2.43568468,-490.559204
1574,1575,0.190843,-0.0326742,1423.65625,-7.307051179999999,-466.67762749999997
1575,1576,0.14163,-0.03054565,1423.65625,-12.1784177,-442.796051
1576,1577,0.1202185,-0.02693255,1423.65625,-17.049784199999998,-418.9144745
1577,1578,0.09368579999999999,-0.0242423,1423.65625,-21.9211502,-395.032898
1578,1579,0.07314625,-0.0211924,1423.65625,-26.7925167,-371.1513215
1579,1580,0.0525941,-0.01926955,1423.65625,-31.6638832,-347.26974500000006
1580,1581,0.036153599999999994,-0.017443149999999998,1423.65625,-36.535251599999995,-323.388153
1581,1582,0.029043900000000004,-0.01652975,1423.65625,-41.406618099999996,-299.5065765
1582,1583,0.0364549,-0.01577915,1423.65625,-46.277984599999996,-275.625
1583,1584,0.053174700000000005,-0.01580505,1423.65625,-51.14935299999999,-251.743416
1584,1585,0.0725536,-0.01605585,1423.65625,-56.0207195,-227.86183949999997
1585,1586,0.09328955,-0.01704525,1423.65625,-60.89208599999999,-203.98026249999998
1586,1587,0.114545,-0.018363249999999998,1423.65625,-65.7634525,-180.09868600000001
1587,1588,0.135998,-0.02050105,1423.65625,-70.634819,-156.2171095
1588,1589,0.158356,-0.023093049999999997,1423.65625,-75.50618739999999,-132.335529
1589,1590,0.18009,-0.026753400000000004,1423.65625,-80.377552,-108.45394885000002
1590,1591,0.205137,-0.0308113,1423.65625,-85.2489166,-84.5723686
1591,1592,0.22748849999999998,-0.036097050000000006,1423.65625,-90.120285,-60.69078825
1592,1593,0.247232,-0.03229495,1398.552065,-2.435684085,-490.559204
1593,1594,0.167458,-0.03788215,1398.552065,-7.307050825,-466.67762749999997
1594,1595,0.135101,-0.025062800000000003,1398.552065,-12.178417465,-442.796051
1595,1596,0.10815550000000002,-0.0232947,1398.552065,-17.049784199999998,-418.9144745
1596,1597,0.0852686,-0.017885450000000004,1398.552065,-21.921150675,-395.032898
1597,1598,0.06389415000000001,-0.01571475,1398.552065,-26.792517175,-371.1513215
1598,1599,0.04354355,-0.0127863,1398.552065,-31.663883675,-347.26974500000006
1599,1600,0.0258373,-0.011327199999999999,1398.552065,-36.535251599999995,-323.388153
1600,1601,0.017698199999999997,-0.009862895,1398.552065,-41.406618099999996,-299.5065765
1601,1602,0.0295639,-0.009398925,1398.552065,-46.277984599999996,-275.625
1602,1603,0.0479932,-0.00912994,1398.552065,-51.14935299999999,-251.743416
1603,1604,0.06813585,-0.009734085,1398.552065,-56.0207195,-227.86183949999997
1604,1605,0.08856359999999999,-0.01063385,1398.552065,-60.89208599999999,-203.98026249999998
1605,1606,0.1092465,-0.012465,1398.552065,-65.7634525,-180.09868600000001
1606,1607,0.12998900000000002,-0.0146354,1398.552065,-70.634819,-156.2171095
1607,1608,0.150794,-0.0180908,1398.552065,-75.50618739999999,-132.335529
1608,1609,0.172087,-0.0216137,1398.552065,-80.377553925,-108.45394885000002
1609,1610,0.1936865,-0.027627200000000005,1398.552065,-85.248918525,-84.5723686
1610,1611,0.21797750000000002,-0.03214025,1398.552065,-90.120285,-60.69078825
1611,1612,0.0006115665,0.000324647,2602.666625,95.0419769,-36.5625
1612,1613,0.000703593,0.000146195,2602.666625,100.01399229999998,-12.1875
1613,1614,0.0007253540000000001,0.000397263,2626.0,95.0419769,-36.5625
1614,1615,0.000282535,9.0263e-05,2626.0,100.01399229999998,-12.1875
1615,1616,0.000601877,0.0003074585,2649.333375,95.0419769,-36.5625
1616,1617,0.00029216599999999995,0.000120807,2649.333375,100.01399229999998,-12.1875
1617,1618,0.041035949999999995,-0.0230535,2578.447875,-95.0419769,-36.5625
1618,1619,0.031049,-0.017232749999999998,2578.447875,-100.01399229999998,-12.1875
1619,1620,0.04314145,-0.0240467,2553.34375,-95.0419769,-36.5625
1620,1621,0.027979300000000002,-0.016003299999999998,2553.34375,-100.01399229999998,-12.1875
1621,1622,0.0424367,-0.022696,2528.239625,-95.0419769,-36.5625
1622,1623,0.0289602,-0.01483865,2528.239625,-100.01399229999998,-12.1875
1623,1624,0.04484745,-0.02243225,2503.135375,-95.0419769,-36.5625
1624,1625,0.03418365,-0.014976199999999999,2503.135375,-100.01399229999998,-12.1875
1625,1626,0.04875665,-0.023089600000000002,2478.03125,-95.0419769,-36.5625
1626,1627,0.040962149999999996,-0.01536335,2478.03125,-100.01399229999998,-12.1875
1627,1628,0.054113549999999996,-0.024421949999999998,2452.927125,-95.0419769,-36.5625
1628,1629,0.049403100000000005,-0.01664475,2452.927125,-100.01399229999998,-12.1875
1629,1630,0.06092935,-0.02764225,2427.822875,-95.0419769,-36.5625
1630,1631,0.05974309999999999,-0.01959185,2427.822875,-100.01399229999998,-12.1875
1631,1632,0.05902924999999999,-0.02723685,2402.71875,-95.0419769,-36.5625
1632,1633,0.0709929,-0.022301299999999996,2402.71875,-100.01399229999998,-12.1875
1633,1634,0.06086825,-0.017155700000000003,2377.614625,-95.0419769,-36.5625
1634,1635,0.048084249999999995,-0.01080775,2377.614625,-100.01399229999998,-12.1875
1635,1636,0.06788834999999999,-0.01861015,2352.510375,-95.0419769,-36.5625
1636,1637,0.0585165,-0.011146399999999999,2352.510375,-100.01399229999998,-12.1875
1637,1638,0.07358445,-0.01888765,2327.40625,-95.0419769,-36.5625
1638,1639,0.06914205000000001,-0.01152245,2327.40625,-100.01399229999998,-12.1875
1639,1640,0.08018555000000001,-0.01933965,2302.302125,-95.0419769,-36.5625
1640,1641,0.07782204999999999,-0.01254465,2302.302125,-100.01399229999998,-12.1875
1641,1642,0.0858232,-0.020269299999999997,2277.197875,-95.0419769,-36.5625
1642,1643,0.08614415,-0.013189649999999999,2277.197875,-100.01399229999998,-12.1875
1643,1644,0.0918836,-0.02116605,2252.09375,-95.0419769,-36.5625
1644,1645,0.093961,-0.0143307,2252.09375,-100.01399229999998,-12.1875
1645,1646,0.0980002,-0.0232155,2226.989625,-95.0419769,-36.5625
1646,1647,0.10210250000000001,-0.01579155,2226.989625,-100.01399229999998,-12.1875
1647,1648,0.104183,-0.025922849999999997,2201.885375,-95.0419769,-36.5625
1648,1649,0.111221,-0.018601,2201.885375,-100.01399229999998,-12.1875
1649,1650,0.110341,-0.031151150000000002,2176.78125,-95.0419769,-36.5625
1650,1651,0.1202275,-0.023684,2176.78125,-100.01399229999998,-12.1875
1651,1652,0.10400800000000002,-0.03142735,2151.677125,-95.0419769,-36.5625
1652,1653,0.13094699999999998,-0.027879300000000003,2151.677125,-100.01399229999998,-12.1875
1653,1654,0.10741900000000001,-0.0111322,2126.572875,-95.0419769,-36.5625
1654,1655,0.10759049999999999,-0.00408295,2126.572875,-100.01399229999998,-12.1875
1655,1656,0.1197385,-0.013099900000000001,2101.46875,-95.0419769,-36.5625
1656,1657,0.118921,-0.0062445750000000005,2101.46875,-100.01399229999998,-12.1875
1657,1658,0.12817299999999998,-0.015486199999999999,2076.364625,-95.0419769,-36.5625
1658,1659,0.1311465,-0.008547289999999999,2076.364625,-100.01399229999998,-12.1875
1659,1660,0.13553199999999999,-0.016906449999999996,2051.260435,-95.0419769,-36.5625
1660,1661,0.140005,-0.0109721,2051.260435,-100.01399229999998,-12.1875
1661,1662,0.14214149999999998,-0.01855105,2026.15625,-95.0419769,-36.5625
1662,1663,0.1477275,-0.011786149999999999,2026.15625,-100.01399229999998,-12.1875
1663,1664,0.147615,-0.0198281,2001.052065,-95.0419769,-36.5625
1664,1665,0.15601199999999998,-0.0134604,2001.052065,-100.01399229999998,-12.1875
1665,1666,0.1537135,-0.021611,1975.9479350000001,-95.0419769,-36.5625
1666,1667,0.1627075,-0.015136450000000001,1975.9479350000001,-100.01399229999998,-12.1875
1667,1668,0.15915600000000002,-0.024480599999999998,1950.84375,-95.0419769,-36.5625
1668,1669,0.1703805,-0.0173052,1950.84375,-100.01399229999998,-12.1875
1669,1670,0.1644895,-0.028430800000000003,1925.739565,-95.0419769,-36.5625
1670,1671,0.178752,-0.02152775,1925.739565,-100.01399229999998,-12.1875
1671,1672,0.1687885,-0.03554065000000001,1900.6354350000001,-95.0419769,-36.5625
1672,1673,0.1857525,-0.02862305,1900.6354350000001,-100.01399229999998,-12.1875
1673,1674,0.15719850000000002,-0.036495349999999996,1875.53125,-95.0419769,-36.5625
1674,1675,0.19535599999999997,-0.03431465,1875.53125,-100.01399229999998,-12.1875
1675,1676,0.160607,-0.005567745,1850.427065,-95.0419769,-36.5625
1676,1677,0.17322900000000002,0.002203798,1850.427065,-100.01399229999998,-12.1875
1677,1678,0.1782905,-0.00810561,1825.3229350000001,-95.0419769,-36.5625
1678,1679,0.1844135,-0.0018327299999999999,1825.3229350000001,-100.01399229999998,-12.1875
1679,1680,0.1881205,-0.012709650000000001,1800.21875,-95.0419769,-36.5625
1680,1681,0.1975975,-0.00626025,1800.21875,-100.01399229999998,-12.1875
1681,1682,0.19596750000000002,-0.01532715,1775.114565,-95.0419769,-36.5625
1682,1683,0.206169,-0.01013702,1775.114565,-100.01399229999998,-12.1875
1683,1684,0.202691,-0.01794945,1750.0104350000001,-95.0419769,-36.5625
1684,1685,0.213536,-0.011578449999999999,1750.0104350000001,-100.01399229999998,-12.1875
1685,1686,0.2077775,-0.0198439,1724.90625,-95.0419769,-36.5625
1686,1687,0.22170099999999998,-0.013932,1724.90625,-100.01399229999998,-12.1875
1687,1688,0.2136365,-0.0222237,1699.802065,-95.0419769,-36.5625
1688,1689,0.227597,-0.0162683,1699.802065,-100.01399229999998,-12.1875
1689,1690,0.21836799999999998,-0.025953,1674.6979350000001,-95.0419769,-36.5625
1690,1691,0.23466749999999997,-0.01898575,1674.6979350000001,-100.01399229999998,-12.1875
1691,1692,0.222651,-0.0309212,1649.59375,-95.0419769,-36.5625
1692,1693,0.24236249999999998,-0.02449605,1649.59375,-100.01399229999998,-12.1875
1693,1694,0.22523100000000001,-0.039822800000000005,1624.489565,-95.0419769,-36.5625
1694,1695,0.24742799999999998,-0.033393000000000006,1624.489565,-100.01399229999998,-12.1875
1695,1696,0.2085245,-0.04137545,1599.3854350000001,-95.0419769,-36.5625
1696,1697,0.2559985,-0.0405139,1599.3854350000001,-100.01399229999998,-12.1875
1697,1698,0.2128545,-0.00298072,1574.28125,-95.0419769,-36.5625
1698,1699,0.23544500000000002,0.005534975,1574.28125,-100.01399229999998,-12.1875
1699,1700,0.235569,-0.006335275,1549.177065,-95.0419769,-36.5625
1700,1701,0.24626199999999998,-0.000657101,1549.177065,-100.01399229999998,-12.1875
1701,1702,0.24552600000000002,-0.014080500000000001,1524.0729350000001,-95.0419769,-36.5625
1702,1703,0.26053950000000003,-0.007866225000000001,1524.0729350000001,-100.01399229999998,-12.1875
1703,1704,0.2537065,-0.01867845,1498.96875,-95.0419769,-36.5625
1704,1705,0.26785800000000004,-0.014423100000000001,1498.96875,-100.01399229999998,-12.1875
1705,1706,0.259375,-0.02512855,1473.864565,-95.0419769,-36.5625
1706,1707,0.27500800000000003,-0.01807685,1473.864565,-100.01399229999998,-12.1875
1707,1708,0.2628785,-0.030907700000000003,1448.7604350000001,-95.0419769,-36.5625
1708,1709,0.28359449999999997,-0.025405999999999998,1448.7604350000001,-100.01399229999998,-12.1875
1709,1710,0.2649935,-0.0418392,1423.65625,-95.0419769,-36.5625
1710,1711,0.28717000000000004,-0.035766400000000004,1423.65625,-100.01399229999998,-12.1875
1711,1712,0.244584,-0.0440204,1398.552065,-95.0419769,-36.5625
1712,1713,0.2955055,-0.04430935,1398.552065,-100.01399229999998,-12.1875
1713,1714,0.001167605,-0.0006731105,2602.666625,13.2644758,100.75370025000001
1714,1715,0.00119431,-0.000689238,2626.0,13.2644758,100.75370025000001
1715,1716,0.00117233,-0.0006764920000000001,2649.333375,13.2644758,100.75370025000001
1716,1717,0.0010751250000000001,-0.000613699,2602.666625,38.8894758,93.88750075
1717,1718,0.00109894,-0.0006319865,2626.0,38.8894758,93.88750075
1718,1719,0.00107427,-0.0006191175,2649.333375,38.8894758,93.88750075
1719,1720,0.0009109455,-0.0005047885000000001,2602.666625,61.86422350000001,80.623024
1720,1721,0.0009070635,-0.0005155419999999999,2626.0,61.86422350000001,80.623024
1721,1722,0.0008830795,-0.0005065905,2649.333375,61.86422350000001,80.623024
1722,1723,0.0006964454999999999,-0.00035768150000000005,2602.666625,80.623024,61.8642235
1723,1724,0.000653132,-0.00035834349999999996,2626.0,80.623024,61.8642235
1724,1725,0.0006330655,-0.0003586905,2649.333375,80.623024,61.8642235
1725,1726,0.00041920200000000003,-0.00012409299999999998,2602.666625,93.88750075,38.8894758
1726,1727,0.0004466125,-0.0002181045,2626.0,93.88750075,38.8894758
1727,1728,0.00031924899999999997,-0.0001412865,2649.333375,93.88750075,38.8894758
1728,1729,0.0008266975,0.0002171315,2602.666625,100.75370025000001,13.2644758
1729,1730,0.000571864,0.000300572,2626.0,100.75370025000001,13.2644758
1730,1731,0.0003921395,0.00016301850000000002,2649.333375,100.75370025000001,13.2644758
1731,2140,0.000703593,0.000146195,2602.666625,-100.0139923,-12.1875
1732,2141,0.0006115665,0.000324647,2602.666625,-95.04197690000001,-36.5625
1733,2142,0.000282535,9.0263e-05,2626.0,-100.0139923,-12.1875
1734,2143,0.0007253540000000001,0.000397263,2626.0,-95.04197690000001,-36.5625
1735,2144,0.00029216599999999995,0.000120807,2649.333375,-100.0139923,-12.1875
1736,2145,0.000601877,0.0003074585,2649.333375,-95.04197690000001,-36.5625
1737,2146,0.1744705,-0.008253845,1223.5,13.2644758,100.75370025000001
1738,2147,0.17282199999999998,-0.00464468,1248.5,13.2644758,100.75370025000001
1739,2148,0.156418,-0.00559711,1273.5,13.2644758,100.75370025000001
1740,2149,0.1331305,-0.007435705,1298.5,13.2644758,100.75370025000001
1741,2150,0.1077925,-0.0025145105,1323.5,13.2644758,100.75370025000001
1742,2151,0.1172755,-0.0119072,1348.5,13.2644758,100.75370025000001
1743,2152,0.09955125000000001,0.00584031,1373.5,13.2644758,100.75370025000001
1744,2153,0.128961,0.0128026,1223.5,38.8894758,93.88750075
1745,2154,0.12470400000000001,0.016049,1248.5,38.8894758,93.88750075
1746,2155,0.10333115000000001,0.014564200000000001,1273.5,38.8894758,93.88750075
1747,2156,0.0826926,0.014122800000000001,1298.5,38.8894758,93.88750075
1748,2157,0.06414275,0.01700995,1323.5,38.8894758,93.88750075
1749,2158,0.06341530000000001,0.00886714,1348.5,38.8894758,93.88750075
1750,2159,0.06381375,0.02605735,1373.5,38.8894758,93.88750075
1751,2160,0.09977849999999999,0.0343729,1223.5,61.86422350000001,80.623024
1752,2161,0.09587055,0.03852795,1248.5,61.86422350000001,80.623024
1753,2162,0.07844984999999999,0.0366573,1273.5,61.86422350000001,80.623024
1754,2163,0.062314800000000004,0.0330523,1298.5,61.86422350000001,80.623024
1755,2164,0.0665593,0.0374376,1323.5,61.86422350000001,80.623024
1756,2165,0.0536508,0.0298488,1348.5,61.86422350000001,80.623024
1757,2166,0.08136959999999999,0.0460588,1373.5,61.86422350000001,80.623024
1758,2167,0.09882455000000001,0.0542435,1223.5,80.623024,61.8642235
1759,2168,0.10320209999999999,0.0584822,1248.5,80.623024,61.8642235
1760,2169,0.09632160000000001,0.05551705,1273.5,80.623024,61.8642235
1761,2170,0.09963225,0.05579195000000001,1298.5,80.623024,61.8642235
1762,2171,0.1086945,0.05825409999999999,1323.5,80.623024,61.8642235
1763,2172,0.0973801,0.0510983,1348.5,80.623024,61.8642235
1764,2173,0.1262105,0.0649883,1373.5,80.623024,61.8642235
1765,2174,0.11607600000000001,0.066194,1223.5,93.88750075,38.8894758
1766,2175,0.123428,0.0699128,1248.5,93.88750075,38.8894758
1767,2176,0.1404045,0.0774674,1273.5,93.88750075,38.8894758
1768,2177,0.1538255,0.07956135,1298.5,93.88750075,38.8894758
1769,2178,0.17232599999999998,0.08801595000000001,1323.5,93.88750075,38.8894758
1770,2179,0.1433645,0.06746305,1348.5,93.88750075,38.8894758
1771,2180,0.163642,0.07846665,1373.5,93.88750075,38.8894758
1772,2181,0.13419599999999998,0.07533315,1223.5,100.75370025000001,13.2644758
1773,2182,0.166028,0.09069250000000001,1248.5,100.75370025000001,13.2644758
1774,2183,0.17963,0.09437024999999999,1273.5,100.75370025000001,13.2644758
1775,2184,0.212164,0.10971349999999999,1298.5,100.75370025000001,13.2644758
1776,2185,0.22396300000000002,0.111404,1323.5,100.75370025000001,13.2644758
1777,2186,0.18808200000000003,0.09137809999999999,1348.5,100.75370025000001,13.2644758
1778,2187,0.2083705,0.0951121,1373.5,100.75370025000001,13.2644758
1779,2188,0.2144775,0.09507215,1373.5,100.0139923,-12.1875
1780,2189,0.2179235,0.1014115,1373.5,95.04197690000001,-36.5625
1781,2190,0.192611,0.08812295,1348.5,100.0139923,-12.1875
1782,2191,0.21713700000000002,0.09850025,1348.5,95.04197690000001,-36.5625
1783,2192,0.215374,0.1049225,1323.5,100.0139923,-12.1875
1784,2193,0.217894,0.111148,1323.5,95.04197690000001,-36.5625
1785,2194,0.202593,0.09958765,1298.5,100.0139923,-12.1875
1786,2195,0.212255,0.10650400000000002,1298.5,95.04197690000001,-36.5625
1787,2196,0.17560900000000002,0.08543604999999999,1273.5,100.0139923,-12.1875
1788,2197,0.19832650000000002,0.09892845,1273.5,95.04197690000001,-36.5625
1789,2198,0.158551,0.08010034999999999,1248.5,100.0139923,-12.1875
1790,2199,0.1853185,0.09263110000000001,1248.5,95.04197690000001,-36.5625
1791,2200,0.13574,0.07168429999999999,1223.5,100.0139923,-12.1875
1792,2201,0.1725805,0.08522860000000002,1223.5,95.04197690000001,-36.5625
1793,2202,0.0006433090000000001,0.000346658,2602.666625,-90.120285,-60.690788250000004
1794,2203,0.0006337504999999999,0.0003386535,2602.666625,-85.248918525,-84.5723686
1795,2204,0.000624199,0.0003359315,2602.666625,-80.377553925,-108.45394885000002
1796,2205,0.000623719,0.0003361255,2602.666625,-75.50618739999999,-132.335529
1797,2206,0.0006193625,0.000335614,2602.666625,-70.634819,-156.2171095
1798,2207,0.000618667,0.00033561,2602.666625,-65.7634525,-180.098686
1799,2208,0.000616288,0.000335487,2602.666625,-60.892086,-203.9802625
1800,2209,0.000615697,0.00033549199999999995,2602.666625,-56.0207195,-227.86183949999997
1801,2210,0.000614445,0.0003354625,2602.666625,-51.14935299999999,-251.74341599999997
1802,2211,0.0006141440000000001,0.00033546499999999996,2602.666625,-46.277984599999996,-275.625
1803,2212,0.0006136045,0.0003354585,2602.666625,-41.406618099999996,-299.5065765
1804,2213,0.000613797,0.00033545950000000004,2602.666625,-36.535251599999995,-323.388153
1805,2214,0.000613726,0.00033545949999999993,2602.666625,-31.663883674999997,-347.269745
1806,2215,0.0006146115,0.0003354725,2602.666625,-26.792517174999997,-371.1513215
1807,2216,0.0006147889999999999,0.000335454,2602.666625,-21.921150674999996,-395.032898
1808,2217,0.0006159774999999999,0.0003352055,2602.666625,-17.049784199999998,-418.9144745
1809,2218,0.0006184459999999999,0.000336403,2602.666625,-12.178417465,-442.796051
1810,2219,0.000633064,0.0003437865,2602.666625,-7.307050824999999,-466.67762749999997
1811,2220,0.0005609244999999999,0.000293958,2602.666625,-2.435684085,-490.559204
1812,2221,0.0006311655,0.00034367999999999996,2626.0,-90.120285,-60.690788250000004
1813,2222,0.0006188789999999999,0.000337871,2626.0,-85.2489166,-84.5723686
1814,2223,0.000617833,0.0003397945,2626.0,-80.377552,-108.45394885000002
1815,2224,0.000614828,0.0003398835,2626.0,-75.50618739999999,-132.335529
1816,2225,0.000611399,0.000339823,2626.0,-70.634819,-156.2171095
1817,2226,0.000608459,0.0003398225,2626.0,-65.7634525,-180.098686
1818,2227,0.000605641,0.0003398245,2626.0,-60.892086,-203.9802625
1819,2228,0.0006030635,0.0003398245,2626.0,-56.0207195,-227.86183949999997
1820,2229,0.000600675,0.00033982449999999997,2626.0,-51.14935299999999,-251.74341599999997
1821,2230,0.0005985035,0.00033982449999999997,2626.0,-46.277984599999996,-275.625
1822,2231,0.0005965395,0.000339824,2626.0,-41.406618099999996,-299.5065765
1823,2232,0.0005947895,0.0003398245,2626.0,-36.535251599999995,-323.388153
1824,2233,0.0005932495000000001,0.00033982200000000004,2626.0,-31.6638832,-347.269745
1825,2234,0.0005919370000000001,0.00033982650000000006,2626.0,-26.7925167,-371.1513215
1826,2235,0.000590954,0.000339895,2626.0,-21.9211502,-395.032898
1827,2236,0.0005896585,0.00033965600000000003,2626.0,-17.049784199999998,-418.9144745
1828,2237,0.0005855599999999999,0.0003376705,2626.0,-12.1784177,-442.796051
1829,2238,0.0006041200000000001,0.000348648,2626.0,-7.30705118,-466.67762749999997
1830,2239,0.0006913635000000001,0.0003991345,2626.0,-2.43568468,-490.559204
1831,2240,0.000652885,0.000348029,2649.333375,-90.120285,-60.690788250000004
1832,2241,0.0006361795000000001,0.000341017,2649.333375,-85.248918525,-84.5723686
1833,2242,0.0006349815,0.0003426575,2649.333375,-80.377553925,-108.45394885000002
1834,2243,0.0006342165000000001,0.000342954,2649.333375,-75.50618739999999,-132.335529
1835,2244,0.0006320634999999999,0.000343476,2649.333375,-70.634819,-156.2171095
1836,2245,0.00063093,0.0003434655,2649.333375,-65.7634525,-180.098686
1837,2246,0.000629219,0.0003435885,2649.333375,-60.892086,-203.9802625
1838,2247,0.000628394,0.00034358399999999997,2649.333375,-56.0207195,-227.86183949999997
1839,2248,0.00062731,0.000343613,2649.333375,-51.14935299999999,-251.74341599999997
1840,2249,0.0006268975,0.00034361099999999996,2649.333375,-46.277984599999996,-275.625
1841,2250,0.0006263415,0.0003436175,2649.333375,-41.406618099999996,-299.5065765
1842,2251,0.0006264755,0.0003436155,2649.333375,-36.535251599999995,-323.388153
1843,2252,0.0006263110000000001,0.000343617,2649.333375,-31.663883674999997,-347.269745
1844,2253,0.000627131,0.000343621,2649.333375,-26.792517175,-371.1513215
1845,2254,0.0006271965,0.000343593,2649.333375,-21.921150675,-395.032898
1846,2255,0.0006282900000000001,0.0003433085,2649.333375,-17.049784199999998,-418.9144745
1847,2256,0.000630521,0.000344456,2649.333375,-12.178417465,-442.796051
1848,2257,0.000644018,0.000351683,2649.333375,-7.307050825000001,-466.67762749999997
1849,2258,0.000573046,0.00030162950000000004,2649.333375,-2.435684085,-490.559204
1850,2259,0.2185225,0.09863635,1373.5,90.120285,-60.690788250000004
1851,2260,0.2209295,0.09907949999999999,1373.5,85.248918525,-84.5723686
1852,2261,0.22316550000000002,0.09889,1373.5,80.377553925,-108.45394885000002
1853,2262,0.22559200000000001,0.09891649999999999,1373.5,75.50618739999999,-132.335529
1854,2263,0.22801949999999999,0.09890375000000001,1373.5,70.634819,-156.2171095
1855,2264,0.2305125,0.0989053,1373.5,65.7634525,-180.098686
1856,2265,0.2330255,0.09890445,1373.5,60.892086,-203.9802625
1857,2266,0.23558049999999997,0.09890449999999999,1373.5,56.0207195,-227.86183949999997
1858,2267,0.2381625,0.09890435,1373.5,51.14935299999999,-251.74341599999997
1859,2268,0.240776,0.09890435,1373.5,46.277984599999996,-275.625
1860,2269,0.2434175,0.09890304999999999,1373.5,41.406618099999996,-299.5065765
1861,2270,0.24608950000000002,0.09890275,1373.5,36.535251599999995,-323.388153
1862,2271,0.24875699999999998,0.09888485,1373.5,31.663883674999997,-347.269745
1863,2272,0.2515175,0.0988868,1373.5,26.792517174999997,-371.1513215
1864,2273,0.253801,0.09863245,1373.5,21.921150674999996,-395.032898
1865,2274,0.257272,0.09875139999999999,1373.5,17.049784199999998,-418.9144745
1866,2275,0.253245,0.09510215,1373.5,12.178417465,-442.796051
1867,2276,0.26869149999999997,0.09809355,1373.5,7.307050824999999,-466.67762749999997
1868,2277,0.1800735,0.0454027,1373.5,2.435684085,-490.559204
1869,2278,0.21514099999999997,0.09680875,1348.5,90.120285,-60.690788250000004
1870,2279,0.2190505,0.09754255,1348.5,85.2489166,-84.5723686
1871,2280,0.2211515,0.09743394999999999,1348.5,80.377552,-108.45394885000002
1872,2281,0.22367950000000003,0.097483,1348.5,75.50618739999999,-132.335529
1873,2282,0.2261265,0.09747655,1348.5,70.634819,-156.2171095
1874,2283,0.228636,0.09747985,1348.5,65.7634525,-180.098686
1875,2284,0.23117100000000002,0.09747945,1348.5,60.892086,-203.9802625
1876,2285,0.23374099999999998,0.0974797,1348.5,56.0207195,-227.86183949999997
1877,2286,0.236342,0.09747975,1348.5,51.14935299999999,-251.74341599999997
1878,2287,0.238973,0.09748009999999999,1348.5,46.277984599999996,-275.625
1879,2288,0.2416355,0.0974802,1348.5,41.406618099999996,-299.5065765
1880,2289,0.2443245,0.097485,1348.5,36.535251599999995,-323.388153
1881,2290,0.24705500000000002,0.09748530000000001,1348.5,31.6638832,-347.269745
1882,2291,0.249824,0.09755275000000001,1348.5,26.7925167,-371.1513215
1883,2292,0.252722,0.09753325,1348.5,21.9211502,-395.032898
1884,2293,0.25592349999999997,0.09849560000000002,1348.5,17.049784199999998,-418.9144745
1885,2294,0.26029199999999997,0.0978752,1348.5,12.1784177,-442.796051
1886,2295,0.269541,0.111743,1348.5,7.30705118,-466.67762749999997
1887,2296,0.29483550000000003,0.0981079,1348.5,2.43568468,-490.559204
1888,2297,0.218332,0.109843,1323.5,90.120285,-60.690788250000004
1889,2298,0.22261699999999998,0.110672,1323.5,85.2489166,-84.5723686
1890,2299,0.226356,0.11019300000000001,1323.5,80.377552,-108.45394885000002
1891,2300,0.23021000000000003,0.10968,1323.5,75.50618739999999,-132.335529
1892,2301,0.234428,0.109255,1323.5,70.634819,-156.2171095
1893,2302,0.2386375,0.10873350000000001,1323.5,65.7634525,-180.098686
1894,2303,0.24331049999999999,0.1084165,1323.5,60.892086,-203.9802625
1895,2304,0.24763049999999998,0.1077975,1323.5,56.0207195,-227.86183949999997
1896,2305,0.252594,0.107475,1323.5,51.14935299999999,-251.74341599999997
1897,2306,0.256446,0.106373,1323.5,46.277984599999996,-275.625
1898,2307,0.2614885,0.1058795,1323.5,41.406618099999996,-299.5065765
1899,2308,0.2638085,0.103537,1323.5,36.535251599999995,-323.388153
1900,2309,0.2686545,0.10256799999999999,1323.5,31.6638832,-347.269745
1901,2310,0.26709,0.0971477,1323.5,26.7925167,-371.1513215
1902,2311,0.270441,0.09459245,1323.5,21.9211502,-395.032898
1903,2312,0.2587925,0.08111805,1323.5,17.049784199999998,-418.9144745
1904,2313,0.24886,0.07159404999999999,1323.5,12.1784177,-442.796051
1905,2314,0.215381,0.04601395,1323.5,7.30705118,-466.67762749999997
1906,2315,0.1708225,0.0223031,1323.5,2.43568468,-490.559204
1907,2316,0.2142265,0.1076165,1298.5,90.120285,-60.690788250000004
1908,2317,0.21903299999999998,0.1077855,1298.5,85.2489166,-84.5723686
1909,2318,0.22183999999999998,0.1068635,1298.5,80.377552,-108.45394885000002
1910,2319,0.22598600000000002,0.1064345,1298.5,75.50618739999999,-132.335529
1911,2320,0.23014600000000002,0.10597300000000001,1298.5,70.634819,-156.2171095
1912,2321,0.23484850000000002,0.10571749999999999,1298.5,65.7634525,-180.098686
1913,2322,0.2394955,0.1053885,1298.5,60.892086,-203.9802625
1914,2323,0.24470750000000002,0.10520399999999999,1298.5,56.0207195,-227.86183949999997
1915,2324,0.2493845,0.104733,1298.5,51.14935299999999,-251.74341599999997
1916,2325,0.25506,0.1045055,1298.5,46.277984599999996,-275.625
1917,2326,0.2592425,0.103586,1298.5,41.406618099999996,-299.5065765
1918,2327,0.26559600000000005,0.1032235,1298.5,36.535251599999995,-323.388153
1919,2328,0.2684025,0.1012955,1298.5,31.6638832,-347.269745
1920,2329,0.276339,0.10076950000000001,1298.5,26.7925167,-371.1513215
1921,2330,0.27597950000000004,0.0963659,1298.5,21.9211502,-395.032898
1922,2331,0.2864375,0.0954392,1298.5,17.049784199999998,-418.9144745
1923,2332,0.2751785,0.0803255,1298.5,12.1784177,-442.796051
1924,2333,0.263677,0.06914345,1298.5,7.30705118,-466.67762749999997
1925,2334,0.214793,0.04620855,1298.5,2.43568468,-490.559204
1926,2335,0.21010099999999998,0.10421849999999999,1273.5,90.120285,-60.690788250000004
1927,2336,0.212494,0.10306649999999999,1273.5,85.2489166,-84.5723686
1928,2337,0.21698499999999998,0.1031385,1273.5,80.377552,-108.45394885000002
1929,2338,0.220906,0.10265650000000001,1273.5,75.50618739999999,-132.335529
1930,2339,0.22565349999999998,0.102549,1273.5,70.634819,-156.2171095
1931,2340,0.230546,0.10247500000000001,1273.5,65.7634525,-180.098686
1932,2341,0.23586400000000002,0.1024505,1273.5,60.892086,-203.9802625
1933,2342,0.24111849999999999,0.1024455,1273.5,56.0207195,-227.86183949999997
1934,2343,0.246963,0.1024425,1273.5,51.14935299999999,-251.74341599999997
1935,2344,0.2523525,0.1024515,1273.5,46.277984599999996,-275.625
1936,2345,0.25893200000000005,0.102469,1273.5,41.406618099999996,-299.5065765
1937,2346,0.2642565,0.10255999999999998,1273.5,36.535251599999995,-323.388153
1938,2347,0.2723495,0.1027595,1273.5,31.6638832,-347.269745
1939,2348,0.277337,0.10318150000000001,1273.5,26.7925167,-371.1513215
1940,2349,0.2893295,0.10435,1273.5,21.9211502,-395.032898
1941,2350,0.291844,0.10404250000000001,1273.5,17.049784199999998,-418.9144745
1942,2351,0.3135025,0.1062865,1273.5,12.1784177,-442.796051
1943,2352,0.2942395,0.0844199,1273.5,7.30705118,-466.67762749999997
1944,2353,0.2503125,0.0506589,1273.5,2.43568468,-490.559204
1945,2354,0.198478,0.09613259999999998,1248.5,90.120285,-60.690788250000004
1946,2355,0.205003,0.09800105,1248.5,85.2489166,-84.5723686
1947,2356,0.21025749999999999,0.09833995,1248.5,80.377552,-108.45394885000002
1948,2357,0.21548249999999997,0.0987555,1248.5,75.50618739999999,-132.335529
1949,2358,0.2207345,0.09900965,1248.5,70.634819,-156.2171095
1950,2359,0.22621000000000002,0.09921474999999999,1248.5,65.7634525,-180.098686
1951,2360,0.23182950000000002,0.0995133,1248.5,60.892086,-203.9802625
1952,2361,0.2376725,0.09968760000000002,1248.5,56.0207195,-227.86183949999997
1953,2362,0.24367099999999997,0.10016,1248.5,51.14935299999999,-251.74341599999997
1954,2363,0.2500325,0.10039305,1248.5,46.277984599999996,-275.625
1955,2364,0.256533,0.101351,1248.5,41.406618099999996,-299.5065765
1956,2365,0.2637585,0.10179650000000001,1248.5,36.535251599999995,-323.388153
1957,2366,0.2710215,0.1039195,1248.5,31.6638832,-347.269745
1958,2367,0.279965,0.10495199999999999,1248.5,26.7925167,-371.1513215
1959,2368,0.28810800000000003,0.10939600000000001,1248.5,21.9211502,-395.032898
1960,2369,0.301874,0.111482,1248.5,17.049784199999998,-418.9144745
1961,2370,0.3093795,0.1180825,1248.5,12.1784177,-442.796051
1962,2371,0.3457785,0.1166865,1248.5,7.30705118,-466.67762749999997
1963,2372,0.3135715,0.06175555,1248.5,2.43568468,-490.559204
1964,2373,0.18419800000000003,0.08845185,1223.5,90.120285,-60.690788250000004
1965,2374,0.1960305,0.09227725,1223.5,85.248918525,-84.5723686
1966,2375,0.203196,0.093831,1223.5,80.377553925,-108.45394885000002
1967,2376,0.2097135,0.09486575,1223.5,75.50618739999999,-132.335529
1968,2377,0.21568900000000002,0.09546615,1223.5,70.634819,-156.2171095
1969,2378,0.22165050000000003,0.09599844999999999,1223.5,65.7634525,-180.098686
1970,2379,0.22752450000000002,0.09632665,1223.5,60.892086,-203.9802625
1971,2380,0.233744,0.09693915,1223.5,56.0207195,-227.86183949999997
1972,2381,0.23981950000000002,0.0972645,1223.5,51.14935299999999,-251.74341599999997
1973,2382,0.24662499999999998,0.09837190000000001,1223.5,46.277984599999996,-275.625
1974,2383,0.25303549999999997,0.09888345,1223.5,41.406618099999996,-299.5065765
1975,2384,0.260871,0.101183,1223.5,36.535251599999995,-323.388153
1976,2385,0.26767300000000005,0.1020945,1223.5,31.663883674999997,-347.269745
1977,2386,0.277269,0.106811,1223.5,26.792517175,-371.1513215
1978,2387,0.284365,0.1079295,1223.5,21.921150675,-395.032898
1979,2388,0.29760050000000005,0.116976,1223.5,17.049784199999998,-418.9144745
1980,2389,0.306301,0.1148565,1223.5,12.178417465,-442.796051
1981,2390,0.3361025,0.13263950000000002,1223.5,7.307050825000001,-466.67762749999997
1982,2391,0.4141685,0.108152,1223.5,2.4356840823667216,-490.559204
1983,2392,0.043338749999999995,0.02468315,2578.447875,90.120285,-60.690788250000004
1984,2393,0.040814550000000005,0.022700150000000002,2578.447875,85.248918525,-84.5723686
1985,2394,0.039842699999999995,0.0217973,2578.447875,80.377553925,-108.45394885000002
1986,2395,0.03843455,0.02067485,2578.447875,75.50618739999999,-132.335529
1987,2396,0.03781595,0.020166449999999995,2578.447875,70.634819,-156.2171095
1988,2397,0.03708045,0.019595500000000002,2578.447875,65.7634525,-180.098686
1989,2398,0.0366513,0.0192854,2578.447875,60.892086,-203.9802625
1990,2399,0.03630945000000001,0.019006750000000003,2578.447875,56.0207195,-227.86183949999997
1991,2400,0.035817650000000006,0.018681700000000002,2578.447875,51.14935299999999,-251.74341599999997
1992,2401,0.03562705,0.018511800000000002,2578.447875,46.277984599999996,-275.625
1993,2402,0.03476605,0.017975450000000004,2578.447875,41.406618099999996,-299.5065765
1994,2403,0.034447000000000005,0.017752749999999998,2578.447875,36.535251599999995,-323.388153
1995,2404,0.0327051,0.016735049999999998,2578.447875,31.663883674999997,-347.269745
1996,2405,0.031713,0.0162284,2578.447875,26.792517174999997,-371.1513215
1997,2406,0.02816445,0.01435415,2578.447875,21.921150674999996,-395.032898
1998,2407,0.025529549999999998,0.013301650000000002,2578.447875,17.049784199999998,-418.9144745
1999,2408,0.01871865,0.010192300000000001,2578.447875,12.178417465,-442.796051
2000,2409,0.0161315,0.009003205,2578.447875,7.307050824999999,-466.67762749999997
2001,2410,0.027335850000000002,0.00315123,2578.447875,2.435684085,-490.559204
2002,2411,0.0410374,0.022997700000000003,2553.34375,90.120285,-60.690788250000004
2003,2412,0.03960205,0.021739349999999998,2553.34375,85.2489166,-84.5723686
2004,2413,0.03841645,0.020597400000000002,2553.34375,80.377552,-108.45394885000002
2005,2414,0.037811649999999995,0.0201133,2553.34375,75.50618739999999,-132.335529
2006,2415,0.03714365,0.01955075,2553.34375,70.634819,-156.2171095
2007,2416,0.036796300000000004,0.01933625,2553.34375,65.7634525,-180.098686
2008,2417,0.0365235,0.019082250000000002,2553.34375,60.892086,-203.9802625
2009,2418,0.03621035,0.018901150000000005,2553.34375,56.0207195,-227.86183949999997
2010,2419,0.036163,0.01878495,2553.34375,51.14935299999999,-251.74341599999997
2011,2420,0.0357083,0.0185113,2553.34375,46.277984599999996,-275.625
2012,2421,0.03577374999999999,0.018440699999999997,2553.34375,41.406618099999996,-299.5065765
2013,2422,0.03492295000000001,0.017929849999999997,2553.34375,36.535251599999995,-323.388153
2014,2423,0.03489795,0.017793200000000002,2553.34375,31.6638832,-347.269745
2015,2424,0.033086199999999996,0.0167676,2553.34375,26.7925167,-371.1513215
2016,2425,0.03225835,0.0162918,2553.34375,21.9211502,-395.032898
2017,2426,0.02820495,0.014350149999999999,2553.34375,17.049784199999998,-418.9144745
2018,2427,0.02463805,0.01288665,2553.34375,12.1784177,-442.796051
2019,2428,0.0170183,0.009693765,2553.34375,7.30705118,-466.67762749999997
2020,2429,0.01253085,-0.001146555,2553.34375,2.43568468,-490.559204
2021,2430,0.04002145,0.02229275,2528.239625,90.120285,-60.690788250000004
2022,2431,0.03833689999999999,0.020641649999999998,2528.239625,85.2489166,-84.5723686
2023,2432,0.03714595,0.01972795,2528.239625,80.377552,-108.45394885000002
2024,2433,0.036589449999999996,0.0191587,2528.239625,75.50618739999999,-132.335529
2025,2434,0.03633775,0.019036199999999996,2528.239625,70.634819,-156.2171095
2026,2435,0.0362566,0.018881,2528.239625,65.7634525,-180.098686
2027,2436,0.0361418,0.01885845,2528.239625,60.892086,-203.9802625
2028,2437,0.036245200000000005,0.01882645,2528.239625,56.0207195,-227.86183949999997
2029,2438,0.03608725,0.0187642,2528.239625,51.14935299999999,-251.74341599999997
2030,2439,0.0363345,0.0187924,2528.239625,46.277984599999996,-275.625
2031,2440,0.03604295,0.018645349999999998,2528.239625,41.406618099999996,-299.5065765
2032,2441,0.0364404,0.01871565,2528.239625,36.535251599999995,-323.388153
2033,2442,0.0357527,0.01835235,2528.239625,31.6638832,-347.269745
2034,2443,0.0360263,0.0183148,2528.239625,26.7925167,-371.1513215
2035,2444,0.0339652,0.017258449999999998,2528.239625,21.9211502,-395.032898
2036,2445,0.032247750000000006,0.016267,2528.239625,17.049784199999998,-418.9144745
2037,2446,0.0262024,0.01359965,2528.239625,12.1784177,-442.796051
2038,2447,0.014375299999999997,0.00760305,2528.239625,7.30705118,-466.67762749999997
2039,2448,0.002201995,-0.0009118815,2528.239625,2.43568468,-490.559204
2040,2449,0.041392899999999996,0.022628050000000004,2503.135375,90.120285,-60.690788250000004
2041,2450,0.03742735,0.0199499,2503.135375,85.2489166,-84.5723686
2042,2451,0.0361041,0.0188924,2503.135375,80.377552,-108.45394885000002
2043,2452,0.035550250000000005,0.0185987,2503.135375,75.50618739999999,-132.335529
2044,2453,0.03562095,0.01850785,2503.135375,70.634819,-156.2171095
2045,2454,0.035641149999999996,0.018588649999999998,2503.135375,65.7634525,-180.098686
2046,2455,0.035925700000000005,0.018659449999999998,2503.135375,60.892086,-203.9802625
2047,2456,0.03597825,0.018744900000000002,2503.135375,56.0207195,-227.86183949999997
2048,2457,0.03631775,0.018838849999999997,2503.135375,51.14935299999999,-251.74341599999997
2049,2458,0.03633695000000001,0.01890365,2503.135375,46.277984599999996,-275.625
2050,2459,0.03680815,0.019041350000000002,2503.135375,41.406618099999996,-299.5065765
2051,2460,0.0367425,0.019078249999999998,2503.135375,36.535251599999995,-323.388153
2052,2461,0.037359050000000005,0.01923785,2503.135375,31.6638832,-347.269745
2053,2462,0.036747,0.01899975,2503.135375,26.7925167,-371.1513215
2054,2463,0.03678555,0.01872575,2503.135375,21.9211502,-395.032898
2055,2464,0.03355565,0.0169916,2503.135375,17.049784199999998,-418.9144745
2056,2465,0.028297050000000004,0.01374065,2503.135375,12.1784177,-442.796051
2057,2466,0.018926649999999996,0.007651185,2503.135375,7.30705118,-466.67762749999997
2058,2467,0.01044772,-0.0011800495,2503.135375,2.43568468,-490.559204
2059,2468,0.041665999999999995,0.022056899999999997,2478.03125,90.120285,-60.690788250000004
2060,2469,0.0371068,0.019406100000000003,2478.03125,85.2489166,-84.5723686
2061,2470,0.03537285,0.0185224,2478.03125,80.377552,-108.45394885000002
2062,2471,0.03515085,0.018281850000000002,2478.03125,75.50618739999999,-132.335529
2063,2472,0.0350279,0.01829315,2478.03125,70.634819,-156.2171095
2064,2473,0.035433900000000004,0.018430099999999998,2478.03125,65.7634525,-180.098686
2065,2474,0.0355798,0.01857105,2478.03125,60.892086,-203.9802625
2066,2475,0.035989049999999995,0.01871385,2478.03125,56.0207195,-227.86183949999997
2067,2476,0.036157049999999996,0.01886965,2478.03125,51.14935299999999,-251.74341599999997
2068,2477,0.0365728,0.019005,2478.03125,46.277984599999996,-275.625
2069,2478,0.036766999999999994,0.0192043,2478.03125,41.406618099999996,-299.5065765
2070,2479,0.0372812,0.01935915,2478.03125,36.535251599999995,-323.388153
2071,2480,0.0374043,0.0195605,2478.03125,31.6638832,-347.269745
2072,2481,0.03789425,0.019582250000000002,2478.03125,26.7925167,-371.1513215
2073,2482,0.037095699999999995,0.019225199999999998,2478.03125,21.9211502,-395.032898
2074,2483,0.03636895,0.01811285,2478.03125,17.049784199999998,-418.9144745
2075,2484,0.03118705,0.014223300000000001,2478.03125,12.1784177,-442.796051
2076,2485,0.025153250000000002,0.00854152,2478.03125,7.30705118,-466.67762749999997
2077,2486,0.0217604,-0.0007895385,2478.03125,2.43568468,-490.559204
2078,2487,0.0402839,0.02044795,2452.927125,90.120285,-60.690788250000004
2079,2488,0.0369045,0.01920545,2452.927125,85.2489166,-84.5723686
2080,2489,0.0356917,0.0185724,2452.927125,80.377552,-108.45394885000002
2081,2490,0.034937350000000006,0.01829235,2452.927125,75.50618739999999,-132.335529
2082,2491,0.03521465,0.018383299999999998,2452.927125,70.634819,-156.2171095
2083,2492,0.03522165,0.018434850000000003,2452.927125,65.7634525,-180.098686
2084,2493,0.0356399,0.01858965,2452.927125,60.892086,-203.9802625
2085,2494,0.0358217,0.018734300000000002,2452.927125,56.0207195,-227.86183949999997
2086,2495,0.03617094999999999,0.01885025,2452.927125,51.14935299999999,-251.74341599999997
2087,2496,0.03642635,0.0190651,2452.927125,46.277984599999996,-275.625
2088,2497,0.036729700000000004,0.01914245,2452.927125,41.406618099999996,-299.5065765
2089,2498,0.03705675,0.0194422,2452.927125,36.535251599999995,-323.388153
2090,2499,0.03731705,0.0194253,2452.927125,31.6638832,-347.269745
2091,2500,0.03755425,0.01967885,2452.927125,26.7925167,-371.1513215
2092,2501,0.03760115,0.019228099999999998,2452.927125,21.9211502,-395.032898
2093,2502,0.03671870000000001,0.0185051,2452.927125,17.049784199999998,-418.9144745
2094,2503,0.0372531,0.016674500000000002,2452.927125,12.1784177,-442.796051
2095,2504,0.032695249999999995,0.009421829999999999,2452.927125,7.30705118,-466.67762749999997
2096,2505,0.0315141,0.0005956835,2452.927125,2.43568468,-490.559204
2097,2506,0.03985545,0.020164599999999998,2427.822875,90.120285,-60.690788250000004
2098,2507,0.0378605,0.01949825,2427.822875,85.2489166,-84.5723686
2099,2508,0.036021399999999995,0.01883085,2427.822875,80.377552,-108.45394885000002
2100,2509,0.03581039999999999,0.01875645,2427.822875,75.50618739999999,-132.335529
2101,2510,0.035323049999999995,0.0185401,2427.822875,70.634819,-156.2171095
2102,2511,0.035575899999999994,0.018628699999999998,2427.822875,65.7634525,-180.098686
2103,2512,0.0355936,0.018653199999999998,2427.822875,60.892086,-203.9802625
2104,2513,0.0358633,0.0187403,2427.822875,56.0207195,-227.86183949999997
2105,2514,0.03607715,0.01889465,2427.822875,51.14935299999999,-251.74341599999997
2106,2515,0.03623575,0.01891645,2427.822875,46.277984599999996,-275.625
2107,2516,0.0365577,0.0191672,2427.822875,41.406618099999996,-299.5065765
2108,2517,0.036530599999999996,0.01904855,2427.822875,36.535251599999995,-323.388153
2109,2518,0.03692655,0.019354999999999997,2427.822875,31.6638832,-347.269745
2110,2519,0.036620299999999995,0.018905899999999996,2427.822875,26.7925167,-371.1513215
2111,2520,0.037063849999999995,0.0190983,2427.822875,21.9211502,-395.032898
2112,2521,0.03692745,0.017956399999999997,2427.822875,17.049784199999998,-418.9144745
2113,2522,0.0376533,0.01741215,2427.822875,12.1784177,-442.796051
2114,2523,0.0446844,0.0150991,2427.822875,7.30705118,-466.67762749999997
2115,2524,0.04623165,0.0014267099999999999,2427.822875,2.43568468,-490.559204
2116,2525,0.04230075,0.021233550000000004,2402.71875,90.120285,-60.690788250000004
2117,2526,0.0385773,0.019884,2402.71875,85.2489166,-84.5723686
2118,2527,0.037566100000000005,0.0196179,2402.71875,80.377552,-108.45394885000002
2119,2528,0.0361883,0.018967900000000003,2402.71875,75.50618739999999,-132.335529
2120,2529,0.036000000000000004,0.0188911,2402.71875,70.634819,-156.2171095
2121,2530,0.035629049999999995,0.0186866,2402.71875,65.7634525,-180.098686
2122,2531,0.0357392,0.018718850000000002,2402.71875,60.892086,-203.9802625
2123,2532,0.0358227,0.0187655,2402.71875,56.0207195,-227.86183949999997
2124,2533,0.03591465,0.018776699999999997,2402.71875,51.14935299999999,-251.74341599999997
2125,2534,0.0362049,0.018959200000000002,2402.71875,46.277984599999996,-275.625
2126,2535,0.036085,0.0188287,2402.71875,41.406618099999996,-299.5065765
2127,2536,0.036469650000000006,0.019066350000000003,2402.71875,36.535251599999995,-323.388153
2128,2537,0.0359328,0.01860065,2402.71875,31.6638832,-347.269745
2129,2538,0.03639895,0.0187862,2402.71875,26.7925167,-371.1513215
2130,2539,0.03537845,0.0176476,2402.71875,21.9211502,-395.032898
2131,2540,0.03659305,0.01776325,2402.71875,17.049784199999998,-418.9144745
2132,2541,0.0368063,0.015454799999999998,2402.71875,12.1784177,-442.796051
2133,2542,0.04357514999999999,0.016674849999999998,2402.71875,7.30705118,-466.67762749999997
2134,2543,0.06655495,0.0106738,2402.71875,2.43568468,-490.559204
2135,2544,0.06356690000000001,0.0311257,2377.614625,90.120285,-60.690788250000004
2136,2545,0.0629267,0.0286234,2377.614625,85.2489166,-84.5723686
2137,2546,0.06253125,0.026828449999999997,2377.614625,80.377552,-108.45394885000002
2138,2547,0.061884549999999997,0.02505135,2377.614625,75.50618739999999,-132.335529
2139,2548,0.06133735,0.023678400000000002,2377.614625,70.634819,-156.2171095
2140,2549,0.06078945000000001,0.0224161,2377.614625,65.7634525,-180.098686
2141,2550,0.06016015000000001,0.021302099999999997,2377.614625,60.892086,-203.9802625
2142,2551,0.05966655,0.0203281,2377.614625,56.0207195,-227.86183949999997
2143,2552,0.05882685,0.0192137,2377.614625,51.14935299999999,-251.74341599999997
2144,2553,0.058193800000000004,0.01828325,2377.614625,46.277984599999996,-275.625
2145,2554,0.05687575,0.016891200000000002,2377.614625,41.406618099999996,-299.5065765
2146,2555,0.05573255,0.0157359,2377.614625,36.535251599999995,-323.388153
2147,2556,0.05351285,0.0137842,2377.614625,31.6638832,-347.269745
2148,2557,0.05120795,0.0120924,2377.614625,26.7925167,-371.1513215
2149,2558,0.0474352,0.00934382,2377.614625,21.9211502,-395.032898
2150,2559,0.042898,0.0067975,2377.614625,17.049784199999998,-418.9144745
2151,2560,0.0363324,0.0031239450000000004,2377.614625,12.1784177,-442.796051
2152,2561,0.02768515,-0.00045639459999999993,2377.614625,7.30705118,-466.67762749999997
2153,2562,0.015338850000000001,-0.00555295,2377.614625,2.43568468,-490.559204
2154,2563,0.06277055000000001,0.0290891,2352.510375,90.120285,-60.690788250000004
2155,2564,0.062498,0.0270593,2352.510375,85.2489166,-84.5723686
2156,2565,0.06245415,0.0253134,2352.510375,80.377552,-108.45394885000002
2157,2566,0.06209385,0.0239947,2352.510375,75.50618739999999,-132.335529
2158,2567,0.06175635,0.02277505,2352.510375,70.634819,-156.2171095
2159,2568,0.06127874999999999,0.021808900000000003,2352.510375,65.7634525,-180.098686
2160,2569,0.06100595,0.02093795,2352.510375,60.892086,-203.9802625
2161,2570,0.060443250000000004,0.02007785,2352.510375,56.0207195,-227.86183949999997
2162,2571,0.060235250000000004,0.01935335,2352.510375,51.14935299999999,-251.74341599999997
2163,2572,0.059467500000000006,0.018368950000000002,2352.510375,46.277984599999996,-275.625
2164,2573,0.059136549999999996,0.01758995,2352.510375,41.406618099999996,-299.5065765
2165,2574,0.05789855000000001,0.0162397,2352.510375,36.535251599999995,-323.388153
2166,2575,0.0570015,0.015172399999999999,2352.510375,31.6638832,-347.269745
2167,2576,0.054811750000000006,0.0132017,2352.510375,26.7925167,-371.1513215
2168,2577,0.052423250000000005,0.01155005,2352.510375,21.9211502,-395.032898
2169,2578,0.0482823,0.008786805,2352.510375,17.049784199999998,-418.9144745
2170,2579,0.04263905,0.0061841050000000005,2352.510375,12.1784177,-442.796051
2171,2580,0.0333809,0.00251131,2352.510375,7.30705118,-466.67762749999997
2172,2581,0.0222261,-0.004967994999999999,2352.510375,2.43568468,-490.559204
2173,2582,0.06207655,0.0276348,2327.40625,90.120285,-60.690788250000004
2174,2583,0.06240645,0.02553665,2327.40625,85.2489166,-84.5723686
2175,2584,0.0619616,0.023860600000000003,2327.40625,80.377552,-108.45394885000002
2176,2585,0.0619168,0.022634,2327.40625,75.50618739999999,-132.335529
2177,2586,0.0615951,0.021779399999999997,2327.40625,70.634819,-156.2171095
2178,2587,0.0615512,0.021042449999999997,2327.40625,65.7634525,-180.098686
2179,2588,0.0612287,0.0204531,2327.40625,60.892086,-203.9802625
2180,2589,0.0613286,0.0199512,2327.40625,56.0207195,-227.86183949999997
2181,2590,0.060953150000000005,0.0193605,2327.40625,51.14935299999999,-251.74341599999997
2182,2591,0.06114685,0.01891685,2327.40625,46.277984599999996,-275.625
2183,2592,0.06056285,0.0181225,2327.40625,41.406618099999996,-299.5065765
2184,2593,0.0606327,0.01757265,2327.40625,36.535251599999995,-323.388153
2185,2594,0.0594932,0.016309999999999998,2327.40625,31.6638832,-347.269745
2186,2595,0.05877985,0.015382350000000001,2327.40625,26.7925167,-371.1513215
2187,2596,0.05631355,0.0133084,2327.40625,21.9211502,-395.032898
2188,2597,0.05321265,0.01147235,2327.40625,17.049784199999998,-418.9144745
2189,2598,0.0475366,0.00821309,2327.40625,12.1784177,-442.796051
2190,2599,0.038880750000000006,0.0036331799999999997,2327.40625,7.30705118,-466.67762749999997
2191,2600,0.03131095,-0.00357471,2327.40625,2.43568468,-490.559204
2192,2601,0.06399235,0.027333200000000002,2302.302125,90.120285,-60.690788250000004
2193,2602,0.062064499999999995,0.024151799999999998,2302.302125,85.2489166,-84.5723686
2194,2603,0.061709,0.02248005,2302.302125,80.377552,-108.45394885000002
2195,2604,0.06125955,0.0214237,2302.302125,75.50618739999999,-132.335529
2196,2605,0.061327599999999996,0.02071655,2302.302125,70.634819,-156.2171095
2197,2606,0.0611584,0.0203214,2302.302125,65.7634525,-180.098686
2198,2607,0.06148025,0.0200146,2302.302125,60.892086,-203.9802625
2199,2608,0.06138829999999999,0.0197621,2302.302125,56.0207195,-227.86183949999997
2200,2609,0.0618963,0.019593899999999997,2302.302125,51.14935299999999,-251.74341599999997
2201,2610,0.06175525,0.01927305,2302.302125,46.277984599999996,-275.625
2202,2611,0.0623794,0.019114899999999997,2302.302125,41.406618099999996,-299.5065765
2203,2612,0.061960799999999996,0.018513099999999998,2302.302125,36.535251599999995,-323.388153
2204,2613,0.06240999999999999,0.01818085,2302.302125,31.6638832,-347.269745
2205,2614,0.0611487,0.0168652,2302.302125,26.7925167,-371.1513215
2206,2615,0.060285450000000004,0.0158287,2302.302125,21.9211502,-395.032898
2207,2616,0.0569167,0.013096550000000002,2302.302125,17.049784199999998,-418.9144745
2208,2617,0.05210805,0.00996265,2302.302125,12.1784177,-442.796051
2209,2618,0.0455976,0.0044472850000000005,2302.302125,7.30705118,-466.67762749999997
2210,2619,0.03937375,-0.00301574,2302.302125,2.43568468,-490.559204
2211,2620,0.06518449999999999,0.02605215,2277.197875,90.120285,-60.690788250000004
2212,2621,0.0624316,0.02302505,2277.197875,85.2489166,-84.5723686
2213,2622,0.0610803,0.02123195,2277.197875,80.377552,-108.45394885000002
2214,2623,0.06073215,0.02024765,2277.197875,75.50618739999999,-132.335529
2215,2624,0.060465950000000004,0.0198565,2277.197875,70.634819,-156.2171095
2216,2625,0.060870999999999995,0.019655,2277.197875,65.7634525,-180.098686
2217,2626,0.0609461,0.019638950000000002,2277.197875,60.892086,-203.9802625
2218,2627,0.06163384999999999,0.019677649999999998,2277.197875,56.0207195,-227.86183949999997
2219,2628,0.06178965000000001,0.0197125,2277.197875,51.14935299999999,-251.74341599999997
2220,2629,0.06266805,0.019821850000000002,2277.197875,46.277984599999996,-275.625
2221,2630,0.06273435,0.01975,2277.197875,41.406618099999996,-299.5065765
2222,2631,0.0637565,0.019828600000000002,2277.197875,36.535251599999995,-323.388153
2223,2632,0.06338840000000001,0.0193339,2277.197875,31.6638832,-347.269745
2224,2633,0.06416445000000001,0.019056499999999997,2277.197875,26.7925167,-371.1513215
2225,2634,0.0624801,0.017262600000000003,2277.197875,21.9211502,-395.032898
2226,2635,0.061149350000000005,0.0154709,2277.197875,17.049784199999998,-418.9144745
2227,2636,0.05701845,0.0109977,2277.197875,12.1784177,-442.796051
2228,2637,0.0519378,0.005658925,2277.197875,7.30705118,-466.67762749999997
2229,2638,0.048613050000000005,-0.002042735,2277.197875,2.43568468,-490.559204
2230,2639,0.06561149999999999,0.02433535,2252.09375,90.120285,-60.690788250000004
2231,2640,0.062413449999999995,0.02164945,2252.09375,85.2489166,-84.5723686
2232,2641,0.060546550000000005,0.01993755,2252.09375,80.377552,-108.45394885000002
2233,2642,0.05969035,0.01934375,2252.09375,75.50618739999999,-132.335529
2234,2643,0.059879299999999996,0.019099699999999997,2252.09375,70.634819,-156.2171095
2235,2644,0.05993175,0.0191831,2252.09375,65.7634525,-180.098686
2236,2645,0.06068485,0.01935125,2252.09375,60.892086,-203.9802625
2237,2646,0.06101315,0.019606850000000002,2252.09375,56.0207195,-227.86183949999997
2238,2647,0.06197605,0.0198816,2252.09375,51.14935299999999,-251.74341599999997
2239,2648,0.06234315,0.020154599999999998,2252.09375,46.277984599999996,-275.625
2240,2649,0.06350510000000001,0.0204571,2252.09375,41.406618099999996,-299.5065765
2241,2650,0.0637241,0.020589549999999998,2252.09375,36.535251599999995,-323.388153
2242,2651,0.06512090000000001,0.02078435,2252.09375,31.6638832,-347.269745
2243,2652,0.0647272,0.0202322,2252.09375,26.7925167,-371.1513215
2244,2653,0.0660367,0.019730900000000003,2252.09375,21.9211502,-395.032898
2245,2654,0.06399185,0.016751,2252.09375,17.049784199999998,-418.9144745
2246,2655,0.0627692,0.01354475,2252.09375,12.1784177,-442.796051
2247,2656,0.05961235000000001,0.0067247999999999995,2252.09375,7.30705118,-466.67762749999997
2248,2657,0.0563592,-0.0007594050000000001,2252.09375,2.43568468,-490.559204
2249,2658,0.0659574,0.022418900000000005,2226.989625,90.120285,-60.690788250000004
2250,2659,0.061591950000000006,0.0197174,2226.989625,85.2489166,-84.5723686
2251,2660,0.05948325,0.018960050000000003,2226.989625,80.377552,-108.45394885000002
2252,2661,0.0590301,0.018561800000000003,2226.989625,75.50618739999999,-132.335529
2253,2662,0.05876605,0.018628,2226.989625,70.634819,-156.2171095
2254,2663,0.05943165,0.018850150000000003,2226.989625,65.7634525,-180.098686
2255,2664,0.059790449999999995,0.01919345,2226.989625,60.892086,-203.9802625
2256,2665,0.060746949999999994,0.019557249999999998,2226.989625,56.0207195,-227.86183949999997
2257,2666,0.061274300000000004,0.0199984,2226.989625,51.14935299999999,-251.74341599999997
2258,2667,0.0623743,0.020393599999999998,2226.989625,46.277984599999996,-275.625
2259,2668,0.06291015,0.02086145,2226.989625,41.406618099999996,-299.5065765
2260,2669,0.0642613,0.021237449999999998,2226.989625,36.535251599999995,-323.388153
2261,2670,0.0646515,0.021530999999999998,2226.989625,31.6638832,-347.269745
2262,2671,0.06653395000000001,0.02167835,2226.989625,26.7925167,-371.1513215
2263,2672,0.06632550000000001,0.02095545,2226.989625,21.9211502,-395.032898
2264,2673,0.06922995000000001,0.020083699999999996,2226.989625,17.049784199999998,-418.9144745
2265,2674,0.0676072,0.01506095,2226.989625,12.1784177,-442.796051
2266,2675,0.0673726,0.009846535,2226.989625,7.30705118,-466.67762749999997
2267,2676,0.06657450000000001,0.00043308395000000007,2226.989625,2.43568468,-490.559204
2268,2677,0.0643902,0.0191703,2201.885375,90.120285,-60.690788250000004
2269,2678,0.060139399999999996,0.018536249999999997,2201.885375,85.2489166,-84.5723686
2270,2679,0.05883415,0.0181187,2201.885375,80.377552,-108.45394885000002
2271,2680,0.0578952,0.01814325,2201.885375,75.50618739999999,-132.335529
2272,2681,0.05828850000000001,0.01838795,2201.885375,70.634819,-156.2171095
2273,2682,0.05849355,0.018705350000000003,2201.885375,65.7634525,-180.098686
2274,2683,0.059359300000000004,0.01910255,2201.885375,60.892086,-203.9802625
2275,2684,0.059926150000000004,0.01957205,2201.885375,56.0207195,-227.86183949999997
2276,2685,0.06090835,0.0199899,2201.885375,51.14935299999999,-251.74341599999997
2277,2686,0.06158085,0.020561549999999998,2201.885375,46.277984599999996,-275.625
2278,2687,0.06267785000000001,0.020957999999999997,2201.885375,41.406618099999996,-299.5065765
2279,2688,0.0634034,0.021588299999999998,2201.885375,36.535251599999995,-323.388153
2280,2689,0.06487694999999999,0.021886450000000002,2201.885375,31.6638832,-347.269745
2281,2690,0.06567039999999999,0.0223729,2201.885375,26.7925167,-371.1513215
2282,2691,0.06838985,0.0223364,2201.885375,21.9211502,-395.032898
2283,2692,0.06913895,0.0217041,2201.885375,17.049784199999998,-418.9144745
2284,2693,0.07617080000000001,0.0206436,2201.885375,12.1784177,-442.796051
2285,2694,0.07609495,0.01186465,2201.885375,7.30705118,-466.67762749999997
2286,2695,0.0761812,0.0031728549999999996,2201.885375,2.43568468,-490.559204
2287,2696,0.0617423,0.017757000000000002,2176.78125,90.120285,-60.690788250000004
2288,2697,0.05970349999999999,0.01783055,2176.78125,85.2489166,-84.5723686
2289,2698,0.0576979,0.01779315,2176.78125,80.377552,-108.45394885000002
2290,2699,0.05765945,0.01811785,2176.78125,75.50618739999999,-132.335529
2291,2700,0.0574876,0.01831575,2176.78125,70.634819,-156.2171095
2292,2701,0.0581349,0.01870675,2176.78125,65.7634525,-180.098686
2293,2702,0.05860675,0.019099,2176.78125,60.892086,-203.9802625
2294,2703,0.05944305,0.0195049,2176.78125,56.0207195,-227.86183949999997
2295,2704,0.060142299999999996,0.02004525,2176.78125,51.14935299999999,-251.74341599999997
2296,2705,0.06101234999999999,0.020417499999999998,2176.78125,46.277984599999996,-275.625
2297,2706,0.06183595,0.021082299999999998,2176.78125,41.406618099999996,-299.5065765
2298,2707,0.0628131,0.0213521,2176.78125,36.535251599999995,-323.388153
2299,2708,0.06387695,0.02212865,2176.78125,31.6638832,-347.269745
2300,2709,0.06541815,0.02216795,2176.78125,26.7925167,-371.1513215
2301,2710,0.06718874999999999,0.023036599999999997,2176.78125,21.9211502,-395.032898
2302,2711,0.07112665,0.02264435,2176.78125,17.049784199999998,-418.9144745
2303,2712,0.0745828,0.02321695,2176.78125,12.1784177,-442.796051
2304,2713,0.09079999999999999,0.0220491,2176.78125,7.30705118,-466.67762749999997
2305,2714,0.0923583,0.0052103,2176.78125,2.43568468,-490.559204
2306,2715,0.062277500000000006,0.018102,2151.677125,90.120285,-60.690788250000004
2307,2716,0.05872505,0.01769635,2151.677125,85.2489166,-84.5723686
2308,2717,0.0579402,0.018162499999999998,2151.677125,80.377552,-108.45394885000002
2309,2718,0.05712575,0.0181098,2151.677125,75.50618739999999,-132.335529
2310,2719,0.057335800000000006,0.0184517,2151.677125,70.634819,-156.2171095
2311,2720,0.0575419,0.01867965,2151.677125,65.7634525,-180.098686
2312,2721,0.05814885,0.01904725,2151.677125,60.892086,-203.9802625
2313,2722,0.05877955,0.0194888,2151.677125,56.0207195,-227.86183949999997
2314,2723,0.059480099999999994,0.019845849999999998,2151.677125,51.14935299999999,-251.74341599999997
2315,2724,0.060317749999999996,0.02044145,2151.677125,46.277984599999996,-275.625
2316,2725,0.061006849999999994,0.020698,2151.677125,41.406618099999996,-299.5065765
2317,2726,0.06208115,0.021416050000000002,2151.677125,36.535251599999995,-323.388153
2318,2727,0.06285695,0.021426050000000002,2151.677125,31.6638832,-347.269745
2319,2728,0.06456424999999999,0.0223166,2151.677125,26.7925167,-371.1513215
2320,2729,0.06602345,0.0218493,2151.677125,21.9211502,-395.032898
2321,2730,0.06977205,0.0233371,2151.677125,17.049784199999998,-418.9144745
2322,2731,0.07453915,0.02196695,2151.677125,12.1784177,-442.796051
2323,2732,0.08558494999999999,0.0264498,2151.677125,7.30705118,-466.67762749999997
2324,2733,0.118896,0.02063895,2151.677125,2.43568468,-490.559204
2325,2734,0.0920012,0.037691,2126.572875,90.120285,-60.690788250000004
2326,2735,0.09230775000000001,0.03437405,2126.572875,85.2489166,-84.5723686
2327,2736,0.09275734999999999,0.03189035,2126.572875,80.377552,-108.45394885000002
2328,2737,0.0927212,0.02931035,2126.572875,75.50618739999999,-132.335529
2329,2738,0.09289,0.027304549999999997,2126.572875,70.634819,-156.2171095
2330,2739,0.0926565,0.0251726,2126.572875,65.7634525,-180.098686
2331,2740,0.0926833,0.023511849999999997,2126.572875,60.892086,-203.9802625
2332,2741,0.09219959999999999,0.0215143,2126.572875,56.0207195,-227.86183949999997
2333,2742,0.09202235,0.0199692,2126.572875,51.14935299999999,-251.74341599999997
2334,2743,0.09112635000000001,0.01777115,2126.572875,46.277984599999996,-275.625
2335,2744,0.09053095,0.0160686,2126.572875,41.406618099999996,-299.5065765
2336,2745,0.08896485000000001,0.01332795,2126.572875,36.535251599999995,-323.388153
2337,2746,0.0875842,0.01116485,2126.572875,31.6638832,-347.269745
2338,2747,0.08500774999999999,0.007545325,2126.572875,26.7925167,-371.1513215
2339,2748,0.08236965,0.00461795,2126.572875,21.9211502,-395.032898
2340,2749,0.07839070000000001,-0.000258469,2126.572875,17.049784199999998,-418.9144745
2341,2750,0.07418084999999999,-0.00415992,2126.572875,12.1784177,-442.796051
2342,2751,0.0686456,-0.0112622,2126.572875,7.30705118,-466.67762749999997
2343,2752,0.06476155,-0.015687,2126.572875,2.43568468,-490.559204
2344,2753,0.09242025,0.03500965,2101.46875,90.120285,-60.690788250000004
2345,2754,0.0931531,0.03239755,2101.46875,85.2489166,-84.5723686
2346,2755,0.09383179999999999,0.0299202,2101.46875,80.377552,-108.45394885000002
2347,2756,0.0941963,0.0279663,2101.46875,75.50618739999999,-132.335529
2348,2757,0.09428120000000001,0.025999,2101.46875,70.634819,-156.2171095
2349,2758,0.0945116,0.0244577,2101.46875,65.7634525,-180.098686
2350,2759,0.09433085,0.02274335,2101.46875,60.892086,-203.9802625
2351,2760,0.0945423,0.0214211,2101.46875,56.0207195,-227.86183949999997
2352,2761,0.09412135,0.01967125,2101.46875,51.14935299999999,-251.74341599999997
2353,2762,0.094237,0.0183456,2101.46875,46.277984599999996,-275.625
2354,2763,0.09343775,0.01626205,2101.46875,41.406618099999996,-299.5065765
2355,2764,0.09319915000000001,0.01468525,2101.46875,36.535251599999995,-323.388153
2356,2765,0.09174365000000001,0.01196815,2101.46875,31.6638832,-347.269745
2357,2766,0.0906848,0.009863995,2101.46875,26.7925167,-371.1513215
2358,2767,0.08808574999999999,0.00627077,2101.46875,21.9211502,-395.032898
2359,2768,0.08567005,0.003378,2101.46875,17.049784199999998,-418.9144745
2360,2769,0.08088275,-0.001162492,2101.46875,12.1784177,-442.796051
2361,2770,0.0773445,-0.00513256,2101.46875,7.30705118,-466.67762749999997
2362,2771,0.0659034,-0.00909596,2101.46875,2.43568468,-490.559204
2363,2772,0.09252985,0.0328215,2076.364625,90.120285,-60.690788250000004
2364,2773,0.09404320000000001,0.03018805,2076.364625,85.2489166,-84.5723686
2365,2774,0.0944575,0.02797945,2076.364625,80.377552,-108.45394885000002
2366,2775,0.09503645,0.02616625,2076.364625,75.50618739999999,-132.335529
2367,2776,0.095405,0.02471405,2076.364625,70.634819,-156.2171095
2368,2777,0.09556375,0.02332325,2076.364625,65.7634525,-180.098686
2369,2778,0.0960207,0.0222434,2076.364625,60.892086,-203.9802625
2370,2779,0.09598585,0.0209668,2076.364625,56.0207195,-227.86183949999997
2371,2780,0.09655825000000001,0.020018849999999998,2076.364625,51.14935299999999,-251.74341599999997
2372,2781,0.09631825,0.018583550000000004,2076.364625,46.277984599999996,-275.625
2373,2782,0.09687615,0.01755405,2076.364625,41.406618099999996,-299.5065765
2374,2783,0.09624895,0.015677749999999997,2076.364625,36.535251599999995,-323.388153
2375,2784,0.0964248,0.014317,2076.364625,31.6638832,-347.269745
2376,2785,0.09501425000000001,0.0117242,2076.364625,26.7925167,-371.1513215
2377,2786,0.09407760000000001,0.00969923,2076.364625,21.9211502,-395.032898
2378,2787,0.0910276,0.00633044,2076.364625,17.049784199999998,-418.9144745
2379,2788,0.0879374,0.0031875000000000002,2076.364625,12.1784177,-442.796051
2380,2789,0.08122270000000001,-0.00029177999999999995,2076.364625,7.30705118,-466.67762749999997
2381,2790,0.07193279999999999,-0.00626636,2076.364625,2.43568468,-490.559204
2382,2791,0.0947074,0.03142065,2051.260435,90.120285,-60.690788250000004
2383,2792,0.09429470000000001,0.0280305,2051.260435,85.2489166,-84.5723686
2384,2793,0.0950949,0.0260479,2051.260435,80.377552,-108.45394885000002
2385,2794,0.0953769,0.02440855,2051.260435,75.50618739999999,-132.335529
2386,2795,0.09583765,0.02326205,2051.260435,70.634819,-156.2171095
2387,2796,0.0963935,0.02234565,2051.260435,65.7634525,-180.098686
2388,2797,0.09667915,0.02151295,2051.260435,60.892086,-203.9802625
2389,2798,0.0975028,0.02089715,2051.260435,56.0207195,-227.86183949999997
2390,2799,0.0976812,0.02006525,2051.260435,51.14935299999999,-251.74341599999997
2391,2800,0.09871529999999999,0.0195102,2051.260435,46.277984599999996,-275.625
2392,2801,0.0986911,0.018422349999999997,2051.260435,41.406618099999996,-299.5065765
2393,2802,0.0997421,0.0177177,2051.260435,36.535251599999995,-323.388153
2394,2803,0.09923420000000001,0.0160509,2051.260435,31.6638832,-347.269745
2395,2804,0.09968515,0.01485625,2051.260435,26.7925167,-371.1513215
2396,2805,0.0980769,0.01228755,2051.260435,21.9211502,-395.032898
2397,2806,0.09650145,0.009998525,2051.260435,17.049784199999998,-418.9144745
2398,2807,0.0925377,0.00651206,2051.260435,12.1784177,-442.796051
2399,2808,0.08618514999999999,0.0020287200000000003,2051.260435,7.30705118,-466.67762749999997
2400,2809,0.079877,-0.00478454,2051.260435,2.43568468,-490.559204
2401,2810,0.09576575000000001,0.02910445,2026.15625,90.120285,-60.690788250000004
2402,2811,0.09535835,0.0262613,2026.15625,85.2489166,-84.5723686
2403,2812,0.09498100000000001,0.0239392,2026.15625,80.377552,-108.45394885000002
2404,2813,0.09541140000000001,0.02278975,2026.15625,75.50618739999999,-132.335529
2405,2814,0.09582995,0.02183355,2026.15625,70.634819,-156.2171095
2406,2815,0.0963106,0.0213491,2026.15625,65.7634525,-180.098686
2407,2816,0.097215,0.0209725,2026.15625,60.892086,-203.9802625
2408,2817,0.09770005,0.020658299999999997,2026.15625,56.0207195,-227.86183949999997
2409,2818,0.0989561,0.02048055,2026.15625,51.14935299999999,-251.74341599999997
2410,2819,0.09937085,0.020083200000000002,2026.15625,46.277984599999996,-275.625
2411,2820,0.1009005,0.019905350000000002,2026.15625,41.406618099999996,-299.5065765
2412,2821,0.1010615,0.019145250000000003,2026.15625,36.535251599999995,-323.388153
2413,2822,0.102597,0.018711600000000002,2026.15625,31.6638832,-347.269745
2414,2823,0.10208300000000001,0.01708085,2026.15625,26.7925167,-371.1513215
2415,2824,0.102496,0.01577895,2026.15625,21.9211502,-395.032898
2416,2825,0.10045655,0.0126607,2026.15625,17.049784199999998,-418.9144745
2417,2826,0.09724425,0.00933374,2026.15625,12.1784177,-442.796051
2418,2827,0.09278185000000001,0.00373376,2026.15625,7.30705118,-466.67762749999997
2419,2828,0.08731565,-0.002910555,2026.15625,2.43568468,-490.559204
2420,2829,0.09717329999999999,0.02695575,2001.052065,90.120285,-60.690788250000004
2421,2830,0.09532769999999999,0.023731099999999998,2001.052065,85.2489166,-84.5723686
2422,2831,0.09494055000000001,0.02221285,2001.052065,80.377552,-108.45394885000002
2423,2832,0.09479585,0.020939199999999998,2001.052065,75.50618739999999,-132.335529
2424,2833,0.09517255,0.020650599999999998,2001.052065,70.634819,-156.2171095
2425,2834,0.09597734999999999,0.0203831,2001.052065,65.7634525,-180.098686
2426,2835,0.09663160000000001,0.0204699,2001.052065,60.892086,-203.9802625
2427,2836,0.09793294999999999,0.0205627,2001.052065,56.0207195,-227.86183949999997
2428,2837,0.09865395,0.0207111,2001.052065,51.14935299999999,-251.74341599999997
2429,2838,0.10033534999999999,0.020910599999999998,2001.052065,46.277984599999996,-275.625
2430,2839,0.10097300000000001,0.020921000000000002,2001.052065,41.406618099999996,-299.5065765
2431,2840,0.10301199999999999,0.0210597,2001.052065,36.535251599999995,-323.388153
2432,2841,0.1033125,0.020532599999999998,2001.052065,31.6638832,-347.269745
2433,2842,0.10539199999999999,0.0202212,2001.052065,26.7925167,-371.1513215
2434,2843,0.1047905,0.018151050000000002,2001.052065,21.9211502,-395.032898
2435,2844,0.1049975,0.0162394,2001.052065,17.049784199999998,-418.9144745
2436,2845,0.10265,0.011356849999999998,2001.052065,12.1784177,-442.796051
2437,2846,0.09895494999999999,0.006213635,2001.052065,7.30705118,-466.67762749999997
2438,2847,0.09560940000000001,-0.00129528,2001.052065,2.43568468,-490.559204
2439,2848,0.09720979999999999,0.0237343,1975.9479350000001,90.120285,-60.690788250000004
2440,2849,0.0953115,0.021614750000000002,1975.9479350000001,85.2489166,-84.5723686
2441,2850,0.09397275000000001,0.019828699999999998,1975.9479350000001,80.377552,-108.45394885000002
2442,2851,0.0937142,0.01960265,1975.9479350000001,75.50618739999999,-132.335529
2443,2852,0.09419435,0.01933125,1975.9479350000001,70.634819,-156.2171095
2444,2853,0.09480264999999999,0.0196966,1975.9479350000001,65.7634525,-180.098686
2445,2854,0.09602759999999999,0.01996435,1975.9479350000001,60.892086,-203.9802625
2446,2855,0.09692875000000001,0.020500249999999998,1975.9479350000001,56.0207195,-227.86183949999997
2447,2856,0.0985692,0.0209449,1975.9479350000001,51.14935299999999,-251.74341599999997
2448,2857,0.09952269999999999,0.02150305,1975.9479350000001,46.277984599999996,-275.625
2449,2858,0.1015845,0.02199185,1975.9479350000001,41.406618099999996,-299.5065765
2450,2859,0.102441,0.0223752,1975.9479350000001,36.535251599999995,-323.388153
2451,2860,0.105071,0.0227319,1975.9479350000001,31.6638832,-347.269745
2452,2861,0.1055435,0.022281500000000003,1975.9479350000001,26.7925167,-371.1513215
2453,2862,0.10863400000000001,0.0219096,1975.9479350000001,21.9211502,-395.032898
2454,2863,0.10808200000000001,0.018567600000000004,1975.9479350000001,17.049784199999998,-418.9144745
2455,2864,0.10865949999999999,0.015429049999999998,1975.9479350000001,12.1784177,-442.796051
2456,2865,0.1067545,0.00812622,1975.9479350000001,7.30705118,-466.67762749999997
2457,2866,0.103209,0.0008275315,1975.9479350000001,2.43568468,-490.559204
2458,2867,0.09731809999999999,0.02089525,1950.84375,90.120285,-60.690788250000004
2459,2868,0.09397475,0.018370650000000002,1950.84375,85.2489166,-84.5723686
2460,2869,0.0924027,0.0182451,1950.84375,80.377552,-108.45394885000002
2461,2870,0.09231920000000002,0.0179781,1950.84375,75.50618739999999,-132.335529
2462,2871,0.0925764,0.0185363,1950.84375,70.634819,-156.2171095
2463,2872,0.09362845,0.018927649999999997,1950.84375,65.7634525,-180.098686
2464,2873,0.0945679,0.0197108,1950.84375,60.892086,-203.9802625
2465,2874,0.09608654999999999,0.0203072,1950.84375,56.0207195,-227.86183949999997
2466,2875,0.0972264,0.0211936,1950.84375,51.14935299999999,-251.74341599999997
2467,2876,0.0990904,0.02186205,1950.84375,46.277984599999996,-275.625
2468,2877,0.10027435,0.022795299999999998,1950.84375,41.406618099999996,-299.5065765
2469,2878,0.1026795,0.023465850000000003,1950.84375,36.535251599999995,-323.388153
2470,2879,0.103839,0.02421715,1950.84375,31.6638832,-347.269745
2471,2880,0.1073405,0.024688599999999998,1950.84375,26.7925167,-371.1513215
2472,2881,0.10823949999999999,0.024246900000000002,1950.84375,21.9211502,-395.032898
2473,2882,0.11379299999999999,0.02376075,1950.84375,17.049784199999998,-418.9144745
2474,2883,0.11380500000000002,0.01804875,1950.84375,12.1784177,-442.796051
2475,2884,0.1148515,0.012802299999999999,1950.84375,7.30705118,-466.67762749999997
2476,2885,0.11339250000000001,0.00290701,1950.84375,2.43568468,-490.559204
2477,2886,0.09550244999999999,0.0161985,1925.739565,90.120285,-60.690788250000004
2478,2887,0.09152754999999999,0.016436,1925.739565,85.2489166,-84.5723686
2479,2888,0.09073675,0.01638845,1925.739565,80.377552,-108.45394885000002
2480,2889,0.0903002,0.0171239,1925.739565,75.50618739999999,-132.335529
2481,2890,0.09109695000000001,0.017670449999999997,1925.739565,70.634819,-156.2171095
2482,2891,0.0919134,0.01859195,1925.739565,65.7634525,-180.098686
2483,2892,0.09327785,0.0192914,1925.739565,60.892086,-203.9802625
2484,2893,0.09449764999999999,0.020336599999999996,1925.739565,56.0207195,-227.86183949999997
2485,2894,0.09613025,0.02108715,1925.739565,51.14935299999999,-251.74341599999997
2486,2895,0.09748285,0.02226325,1925.739565,46.277984599999996,-275.625
2487,2896,0.09944165,0.02303075,1925.739565,41.406618099999996,-299.5065765
2488,2897,0.10092345,0.02433345,1925.739565,36.535251599999995,-323.388153
2489,2898,0.10366,0.025060899999999997,1925.739565,31.6638832,-347.269745
2490,2899,0.105412,0.02629695,1925.739565,26.7925167,-371.1513215
2491,2900,0.1103025,0.0268027,1925.739565,21.9211502,-395.032898
2492,2901,0.1123525,0.026803300000000002,1925.739565,17.049784199999998,-418.9144745
2493,2902,0.123481,0.0264233,1925.739565,12.1784177,-442.796051
2494,2903,0.124503,0.0160463,1925.739565,7.30705118,-466.67762749999997
2495,2904,0.1234465,0.00676117,1925.739565,2.43568468,-490.559204
2496,2905,0.09125420000000001,0.013894,1900.6354350000001,90.120285,-60.690788250000004
2497,2906,0.0897728,0.01467665,1900.6354350000001,85.2489166,-84.5723686
2498,2907,0.08830615,0.015562850000000003,1900.6354350000001,80.377552,-108.45394885000002
2499,2908,0.0887535,0.016381049999999998,1900.6354350000001,75.50618739999999,-132.335529
2500,2909,0.0892888,0.017346900000000002,1900.6354350000001,70.634819,-156.2171095
2501,2910,0.09045015,0.018134449999999996,1900.6354350000001,65.7634525,-180.098686
2502,2911,0.0916466,0.0192171,1900.6354350000001,60.892086,-203.9802625
2503,2912,0.0930722,0.0200037,1900.6354350000001,56.0207195,-227.86183949999997
2504,2913,0.09449570000000002,0.021234799999999998,1900.6354350000001,51.14935299999999,-251.74341599999997
2505,2914,0.0960801,0.0220155,1900.6354350000001,46.277984599999996,-275.625
2506,2915,0.0976719,0.02344445,1900.6354350000001,41.406618099999996,-299.5065765
2507,2916,0.099599,0.024183700000000002,1900.6354350000001,36.535251599999995,-323.388153
2508,2917,0.10158315000000001,0.025883100000000003,1900.6354350000001,31.6638832,-347.269745
2509,2918,0.1045885,0.02650185,1900.6354350000001,26.7925167,-371.1513215
2510,2919,0.107597,0.02856865,1900.6354350000001,21.9211502,-395.032898
2511,2920,0.11423849999999999,0.02892965,1900.6354350000001,17.049784199999998,-418.9144745
2512,2921,0.11930850000000001,0.0310061,1900.6354350000001,12.1784177,-442.796051
2513,2922,0.14228649999999998,0.030789700000000003,1900.6354350000001,7.30705118,-466.67762749999997
2514,2923,0.1421105,0.01025241,1900.6354350000001,2.43568468,-490.559204
2515,2924,0.08980084999999999,0.01335565,1875.53125,90.120285,-60.690788250000004
2516,2925,0.08713565000000001,0.0140756,1875.53125,85.2489166,-84.5723686
2517,2926,0.08693155,0.015273700000000001,1875.53125,80.377552,-108.45394885000002
2518,2927,0.08705299999999999,0.01614335,1875.53125,75.50618739999999,-132.335529
2519,2928,0.08786369999999999,0.0169918,1875.53125,70.634819,-156.2171095
2520,2929,0.08892215,0.018012049999999998,1875.53125,65.7634525,-180.098686
2521,2930,0.0901209,0.0188036,1875.53125,60.892086,-203.9802625
2522,2931,0.09153405,0.01999115,1875.53125,56.0207195,-227.86183949999997
2523,2932,0.09286065,0.02076905,1875.53125,51.14935299999999,-251.74341599999997
2524,2933,0.09447445,0.022149099999999998,1875.53125,46.277984599999996,-275.625
2525,2934,0.09589784999999999,0.0228726,1875.53125,41.406618099999996,-299.5065765
2526,2935,0.0978524,0.0245111,1875.53125,36.535251599999995,-323.388153
2527,2936,0.09960995,0.025081,1875.53125,31.6638832,-347.269745
2528,2937,0.102486,0.027182849999999998,1875.53125,26.7925167,-371.1513215
2529,2938,0.10543350000000001,0.02741805,1875.53125,21.9211502,-395.032898
2530,2939,0.110966,0.0307515,1875.53125,17.049784199999998,-418.9144745
2531,2940,0.1183385,0.030200699999999997,1875.53125,12.1784177,-442.796051
2532,2941,0.1328085,0.0383319,1875.53125,7.30705118,-466.67762749999997
2533,2942,0.1761585,0.03225615,1875.53125,2.43568468,-490.559204
2534,2943,0.12202299999999999,0.04327815,1850.427065,90.120285,-60.690788250000004
2535,2944,0.123022,0.0392749,1850.427065,85.2489166,-84.5723686
2536,2945,0.1241795,0.036135799999999996,1850.427065,80.377552,-108.45394885000002
2537,2946,0.12484500000000001,0.03292665,1850.427065,75.50618739999999,-132.335529
2538,2947,0.12576949999999998,0.03040155,1850.427065,70.634819,-156.2171095
2539,2948,0.12619599999999997,0.02765015,1850.427065,65.7634525,-180.098686
2540,2949,0.12695,0.025516950000000004,1850.427065,60.892086,-203.9802625
2541,2950,0.127063,0.02285025,1850.427065,56.0207195,-227.86183949999997
2542,2951,0.1275695,0.02082855,1850.427065,51.14935299999999,-251.74341599999997
2543,2952,0.1272165,0.01784175,1850.427065,46.277984599999996,-275.625
2544,2953,0.127278,0.01561455,1850.427065,41.406618099999996,-299.5065765
2545,2954,0.1262435,0.011880000000000002,1850.427065,36.535251599999995,-323.388153
2546,2955,0.125559,0.00910375,1850.427065,31.6638832,-347.269745
2547,2956,0.123617,0.004164945,1850.427065,26.7925167,-371.1513215
2548,2957,0.1219265,0.0005107685,1850.427065,21.9211502,-395.032898
2549,2958,0.119012,-0.006274274999999999,1850.427065,17.049784199999998,-418.9144745
2550,2959,0.11679250000000001,-0.01096285,1850.427065,12.1784177,-442.796051
2551,2960,0.11399999999999999,-0.0216193,1850.427065,7.30705118,-466.67762749999997
2552,2961,0.11992199999999999,-0.0257301,1850.427065,2.43568468,-490.559204
2553,2962,0.123449,0.0399518,1825.3229350000001,90.120285,-60.690788250000004
2554,2963,0.12491050000000001,0.0367616,1825.3229350000001,85.2489166,-84.5723686
2555,2964,0.1261185,0.033677200000000004,1825.3229350000001,80.377552,-108.45394885000002
2556,2965,0.12722450000000002,0.031227300000000003,1825.3229350000001,75.50618739999999,-132.335529
2557,2966,0.12792150000000002,0.02869495,1825.3229350000001,70.634819,-156.2171095
2558,2967,0.12891550000000002,0.02671395,1825.3229350000001,65.7634525,-180.098686
2559,2968,0.129338,0.0244237,1825.3229350000001,60.892086,-203.9802625
2560,2969,0.1303215,0.022677950000000002,1825.3229350000001,56.0207195,-227.86183949999997
2561,2970,0.1304705,0.020280950000000002,1825.3229350000001,51.14935299999999,-251.74341599999997
2562,2971,0.1313785,0.01850815,1825.3229350000001,46.277984599999996,-275.625
2563,2972,0.13112449999999998,0.01563495,1825.3229350000001,41.406618099999996,-299.5065765
2564,2973,0.1317445,0.013545600000000001,1825.3229350000001,36.535251599999995,-323.388153
2565,2974,0.1308515,0.00981567,1825.3229350000001,31.6638832,-347.269745
2566,2975,0.13088,0.00709225,1825.3229350000001,26.7925167,-371.1513215
2567,2976,0.128956,0.00218742,1825.3229350000001,21.9211502,-395.032898
2568,2977,0.128493,-0.00145744,1825.3229350000001,17.049784199999998,-418.9144745
2569,2978,0.12463049999999999,-0.007537490000000001,1825.3229350000001,12.1784177,-442.796051
2570,2979,0.127082,-0.01238095,1825.3229350000001,7.30705118,-466.67762749999997
2571,2980,0.11388,-0.012400600000000001,1825.3229350000001,2.43568468,-490.559204
2572,2981,0.12434699999999999,0.03681115,1800.21875,90.120285,-60.690788250000004
2573,2982,0.1263745,0.033706650000000005,1800.21875,85.2489166,-84.5723686
2574,2983,0.127602,0.0311638,1800.21875,80.377552,-108.45394885000002
2575,2984,0.12873400000000002,0.02887625,1800.21875,75.50618739999999,-132.335529
2576,2985,0.1298765,0.027063399999999998,1800.21875,70.634819,-156.2171095
2577,2986,0.1306185,0.025205449999999997,1800.21875,65.7634525,-180.098686
2578,2987,0.13187900000000002,0.0237767,1800.21875,60.892086,-203.9802625
2579,2988,0.13242149999999997,0.022002149999999998,1800.21875,56.0207195,-227.86183949999997
2580,2989,0.133852,0.02069945,1800.21875,51.14935299999999,-251.74341599999997
2581,2990,0.134173,0.0186819,1800.21875,46.277984599999996,-275.625
2582,2991,0.13568249999999998,0.017259499999999997,1800.21875,41.406618099999996,-299.5065765
2583,2992,0.1356175,0.014658050000000002,1800.21875,36.535251599999995,-323.388153
2584,2993,0.136932,0.0128267,1800.21875,31.6638832,-347.269745
2585,2994,0.1361325,0.009349995,1800.21875,26.7925167,-371.1513215
2586,2995,0.13682099999999997,0.0067446,1800.21875,21.9211502,-395.032898
2587,2996,0.134486,0.002595855,1800.21875,17.049784199999998,-418.9144745
2588,2997,0.1344425,-0.001184951,1800.21875,12.1784177,-442.796051
2589,2998,0.128305,-0.0030278650000000002,1800.21875,7.30705118,-466.67762749999997
2590,2999,0.1172245,-0.008276295,1800.21875,2.43568468,-490.559204
2591,3000,0.12635649999999998,0.0340303,1775.114565,90.120285,-60.690788250000004
2592,3001,0.127156,0.030685900000000002,1775.114565,85.2489166,-84.5723686
2593,3002,0.12862649999999998,0.02841515,1775.114565,80.377552,-108.45394885000002
2594,3003,0.12974049999999998,0.02657835,1775.114565,75.50618739999999,-132.335529
2595,3004,0.1307835,0.0251037,1775.114565,70.634819,-156.2171095
2596,3005,0.13215,0.023946099999999998,1775.114565,65.7634525,-180.098686
2597,3006,0.133011,0.022770949999999998,1775.114565,60.892086,-203.9802625
2598,3007,0.13470500000000002,0.021907050000000004,1775.114565,56.0207195,-227.86183949999997
2599,3008,0.135455,0.0206932,1775.114565,51.14935299999999,-251.74341599999997
2600,3009,0.13746750000000002,0.01987315,1775.114565,46.277984599999996,-275.625
2601,3010,0.1380175,0.0183251,1775.114565,41.406618099999996,-299.5065765
2602,3011,0.1402215,0.0173125,1775.114565,36.535251599999995,-323.388153
2603,3012,0.1403285,0.0150886,1775.114565,31.6638832,-347.269745
2604,3013,0.142214,0.013513550000000001,1775.114565,26.7925167,-371.1513215
2605,3014,0.1413335,0.010454,1775.114565,21.9211502,-395.032898
2606,3015,0.1416055,0.007748685,1775.114565,17.049784199999998,-418.9144745
2607,3016,0.13847700000000002,0.00479459,1775.114565,12.1784177,-442.796051
2608,3017,0.13221149999999998,0.00047112,1775.114565,7.30705118,-466.67762749999997
2609,3018,0.124807,-0.00559728,1775.114565,2.43568468,-490.559204
2610,3019,0.127326,0.03059295,1750.0104350000001,90.120285,-60.690788250000004
2611,3020,0.12818800000000002,0.02780855,1750.0104350000001,85.2489166,-84.5723686
2612,3021,0.12885049999999998,0.025534650000000002,1750.0104350000001,80.377552,-108.45394885000002
2613,3022,0.1299765,0.024253049999999998,1750.0104350000001,75.50618739999999,-132.335529
2614,3023,0.131235,0.0232088,1750.0104350000001,70.634819,-156.2171095
2615,3024,0.132308,0.022551949999999998,1750.0104350000001,65.7634525,-180.098686
2616,3025,0.1340705,0.022052300000000004,1750.0104350000001,60.892086,-203.9802625
2617,3026,0.1351345,0.0215473,1750.0104350000001,56.0207195,-227.86183949999997
2618,3027,0.1373495,0.02123535,1750.0104350000001,51.14935299999999,-251.74341599999997
2619,3028,0.1383475,0.020617700000000003,1750.0104350000001,46.277984599999996,-275.625
2620,3029,0.1410015,0.020289849999999998,1750.0104350000001,41.406618099999996,-299.5065765
2621,3030,0.1417775,0.019264500000000004,1750.0104350000001,36.535251599999995,-323.388153
2622,3031,0.144669,0.01865005,1750.0104350000001,31.6638832,-347.269745
2623,3032,0.14488250000000003,0.016746050000000002,1750.0104350000001,26.7925167,-371.1513215
2624,3033,0.1468085,0.015228299999999998,1750.0104350000001,21.9211502,-395.032898
2625,3034,0.1456445,0.0121689,1750.0104350000001,17.049784199999998,-418.9144745
2626,3035,0.143075,0.008788750000000001,1750.0104350000001,12.1784177,-442.796051
2627,3036,0.1387,0.0036020649999999998,1750.0104350000001,7.30705118,-466.67762749999997
2628,3037,0.13166,-0.0029024100000000002,1750.0104350000001,2.43568468,-490.559204
2629,3038,0.1285,0.027273199999999997,1724.90625,90.120285,-60.690788250000004
2630,3039,0.128075,0.02429805,1724.90625,85.2489166,-84.5723686
2631,3040,0.1286945,0.0229065,1724.90625,80.377552,-108.45394885000002
2632,3041,0.129494,0.0217308,1724.90625,75.50618739999999,-132.335529
2633,3042,0.1305365,0.021466100000000002,1724.90625,70.634819,-156.2171095
2634,3043,0.132197,0.0212223,1724.90625,65.7634525,-180.098686
2635,3044,0.1334525,0.0213048,1724.90625,60.892086,-203.9802625
2636,3045,0.1356715,0.021397849999999996,1724.90625,56.0207195,-227.86183949999997
2637,3046,0.136988,0.0215377,1724.90625,51.14935299999999,-251.74341599999997
2638,3047,0.1397275,0.02173285,1724.90625,46.277984599999996,-275.625
2639,3048,0.14097949999999998,0.0217368,1724.90625,41.406618099999996,-299.5065765
2640,3049,0.1442885,0.021871799999999997,1724.90625,36.535251599999995,-323.388153
2641,3050,0.1452795,0.0213415,1724.90625,31.6638832,-347.269745
2642,3051,0.1488505,0.021027050000000002,1724.90625,26.7925167,-371.1513215
2643,3052,0.1491075,0.018958000000000003,1724.90625,21.9211502,-395.032898
2644,3053,0.1504225,0.01703925,1724.90625,17.049784199999998,-418.9144745
2645,3054,0.1486885,0.0121647,1724.90625,12.1784177,-442.796051
2646,3055,0.144487,0.007009355,1724.90625,7.30705118,-466.67762749999997
2647,3056,0.1401925,-0.0004958600000000001,1724.90625,2.43568468,-490.559204
2648,3057,0.1282305,0.02293665,1699.802065,90.120285,-60.690788250000004
2649,3058,0.127722,0.021178250000000003,1699.802065,85.2489166,-84.5723686
2650,3059,0.1275235,0.019659000000000003,1699.802065,80.377552,-108.45394885000002
2651,3060,0.1280725,0.0196781,1699.802065,75.50618739999999,-132.335529
2652,3061,0.12944299999999997,0.019591800000000003,1699.802065,70.634819,-156.2171095
2653,3062,0.13070500000000002,0.02014165,1699.802065,65.7634525,-180.098686
2654,3063,0.132815,0.02054985,1699.802065,60.892086,-203.9802625
2655,3064,0.13433699999999998,0.021264400000000003,1699.802065,56.0207195,-227.86183949999997
2656,3065,0.136957,0.0218387,1699.802065,51.14935299999999,-251.74341599999997
2657,3066,0.1385345,0.0226042,1699.802065,46.277984599999996,-275.625
2658,3067,0.14174549999999997,0.02323575,1699.802065,41.406618099999996,-299.5065765
2659,3068,0.143264,0.023876050000000003,1699.802065,36.535251599999995,-323.388153
2660,3069,0.14729150000000002,0.024408100000000002,1699.802065,31.6638832,-347.269745
2661,3070,0.1485345,0.0242288,1699.802065,26.7925167,-371.1513215
2662,3071,0.15320250000000002,0.024066,1699.802065,21.9211502,-395.032898
2663,3072,0.1535025,0.02067305,1699.802065,17.049784199999998,-418.9144745
2664,3073,0.15471249999999998,0.017567350000000002,1699.802065,12.1784177,-442.796051
2665,3074,0.15278799999999998,0.00987163,1699.802065,7.30705118,-466.67762749999997
2666,3075,0.1476635,0.00241447,1699.802065,2.43568468,-490.559204
2667,3076,0.1279055,0.0190278,1674.6979350000001,90.120285,-60.690788250000004
2668,3077,0.125982,0.01691145,1674.6979350000001,85.2489166,-84.5723686
2669,3078,0.12534499999999998,0.0172498,1674.6979350000001,80.377552,-108.45394885000002
2670,3079,0.12623,0.01732815,1674.6979350000001,75.50618739999999,-132.335529
2671,3080,0.127224,0.01826365,1674.6979350000001,70.634819,-156.2171095
2672,3081,0.129158,0.01894015,1674.6979350000001,65.7634525,-180.098686
2673,3082,0.1307695,0.02007165,1674.6979350000001,60.892086,-203.9802625
2674,3083,0.1332045,0.02092425,1674.6979350000001,56.0207195,-227.86183949999997
2675,3084,0.1349965,0.022187400000000003,1674.6979350000001,51.14935299999999,-251.74341599999997
2676,3085,0.1378835,0.023118899999999998,1674.6979350000001,46.277984599999996,-275.625
2677,3086,0.1397295,0.0245067,1674.6979350000001,41.406618099999996,-299.5065765
2678,3087,0.14334750000000002,0.025481900000000002,1674.6979350000001,36.535251599999995,-323.388153
2679,3088,0.14522200000000002,0.0267876,1674.6979350000001,31.6638832,-347.269745
2680,3089,0.150254,0.027636050000000002,1674.6979350000001,26.7925167,-371.1513215
2681,3090,0.15195350000000002,0.0276871,1674.6979350000001,21.9211502,-395.032898
2682,3091,0.159457,0.02761235,1674.6979350000001,17.049784199999998,-418.9144745
2683,3092,0.160159,0.0213806,1674.6979350000001,12.1784177,-442.796051
2684,3093,0.1611715,0.0159449,1674.6979350000001,7.30705118,-466.67762749999997
2685,3094,0.15851549999999998,0.00533015,1674.6979350000001,2.43568468,-490.559204
2686,3095,0.125701,0.01316045,1649.59375,90.120285,-60.690788250000004
2687,3096,0.12267700000000001,0.0140745,1649.59375,85.2489166,-84.5723686
2688,3097,0.1229485,0.01453855,1649.59375,80.377552,-108.45394885000002
2689,3098,0.12334149999999999,0.01584085,1649.59375,75.50618739999999,-132.335529
2690,3099,0.12505449999999999,0.016819549999999996,1649.59375,70.634819,-156.2171095
2691,3100,0.126623,0.01824665,1649.59375,65.7634525,-180.098686
2692,3101,0.128879,0.01932395,1649.59375,60.892086,-203.9802625
2693,3102,0.1308045,0.020880750000000003,1649.59375,56.0207195,-227.86183949999997
2694,3103,0.13336399999999998,0.021996349999999998,1649.59375,51.14935299999999,-251.74341599999997
2695,3104,0.13540449999999998,0.02375875,1649.59375,46.277984599999996,-275.625
2696,3105,0.13838850000000003,0.024921950000000002,1649.59375,41.406618099999996,-299.5065765
2697,3106,0.14057550000000002,0.02695105,1649.59375,36.535251599999995,-323.388153
2698,3107,0.1445515,0.0281486,1649.59375,31.6638832,-347.269745
2699,3108,0.14707350000000002,0.0302701,1649.59375,26.7925167,-371.1513215
2700,3109,0.1537245,0.03135435,1649.59375,21.9211502,-395.032898
2701,3110,0.156583,0.032138850000000004,1649.59375,17.049784199999998,-418.9144745
2702,3111,0.170817,0.0323968,1649.59375,12.1784177,-442.796051
2703,3112,0.1720285,0.020407250000000002,1649.59375,7.30705118,-466.67762749999997
2704,3113,0.169104,0.01033535,1649.59375,2.43568468,-490.559204
2705,3114,0.12029699999999999,0.00987855,1624.489565,90.120285,-60.690788250000004
2706,3115,0.119919,0.011390850000000001,1624.489565,85.2489166,-84.5723686
2707,3116,0.119389,0.013029150000000001,1624.489565,80.377552,-108.45394885000002
2708,3117,0.12081800000000001,0.01443555,1624.489565,75.50618739999999,-132.335529
2709,3118,0.12222549999999999,0.01605235,1624.489565,70.634819,-156.2171095
2710,3119,0.12430050000000001,0.017335550000000005,1624.489565,65.7634525,-180.098686
2711,3120,0.126288,0.0190392,1624.489565,60.892086,-203.9802625
2712,3121,0.12859399999999999,0.0202795,1624.489565,56.0207195,-227.86183949999997
2713,3122,0.130755,0.022179499999999998,1624.489565,51.14935299999999,-251.74341599999997
2714,3123,0.1332285,0.02342155,1624.489565,46.277984599999996,-275.625
2715,3124,0.1355425,0.025650399999999997,1624.489565,41.406618099999996,-299.5065765
2716,3125,0.1384355,0.026907350000000003,1624.489565,36.535251599999995,-323.388153
2717,3126,0.1411875,0.029625,1624.489565,31.6638832,-347.269745
2718,3127,0.14540550000000002,0.03086275,1624.489565,26.7925167,-371.1513215
2719,3128,0.14931450000000002,0.0342449,1624.489565,21.9211502,-395.032898
2720,3129,0.1580085,0.0353545,1624.489565,17.049784199999998,-418.9144745
2721,3130,0.1641445,0.038975199999999995,1624.489565,12.1784177,-442.796051
2722,3131,0.192952,0.039631299999999994,1624.489565,7.30705118,-466.67762749999997
2723,3132,0.1906685,0.0152253,1624.489565,2.43568468,-490.559204
2724,3133,0.117366,0.008466505,1599.3854350000001,90.120285,-60.690788250000004
2725,3134,0.1158965,0.010122844999999998,1599.3854350000001,85.2489166,-84.5723686
2726,3135,0.116764,0.01208685,1599.3854350000001,80.377552,-108.45394885000002
2727,3136,0.1179455,0.0137397,1599.3854350000001,75.50618739999999,-132.335529
2728,3137,0.11975050000000001,0.015198099999999999,1599.3854350000001,70.634819,-156.2171095
2729,3138,0.12172649999999999,0.016926700000000003,1599.3854350000001,65.7634525,-180.098686
2730,3139,0.1238165,0.01824755,1599.3854350000001,60.892086,-203.9802625
2731,3140,0.1260405,0.0201513,1599.3854350000001,56.0207195,-227.86183949999997
2732,3141,0.1281825,0.0214366,1599.3854350000001,51.14935299999999,-251.74341599999997
2733,3142,0.13055,0.023628749999999997,1599.3854350000001,46.277984599999996,-275.625
2734,3143,0.13275599999999999,0.024890950000000002,1599.3854350000001,41.406618099999996,-299.5065765
2735,3144,0.13547599999999999,0.027535,1599.3854350000001,36.535251599999995,-323.388153
2736,3145,0.13805849999999997,0.02872185,1599.3854350000001,31.6638832,-347.269745
2737,3146,0.141829,0.03214955,1599.3854350000001,26.7925167,-371.1513215
2738,3147,0.1458255,0.03310785,1599.3854350000001,21.9211502,-395.032898
2739,3148,0.152681,0.038355150000000005,1599.3854350000001,17.049784199999998,-418.9144745
2740,3149,0.1619825,0.03857605,1599.3854350000001,12.1784177,-442.796051
2741,3150,0.1794225,0.05026925,1599.3854350000001,7.30705118,-466.67762749999997
2742,3151,0.232429,0.043788099999999996,1599.3854350000001,2.43568468,-490.559204
2743,3152,0.14624700000000002,0.04222905,1574.28125,90.120285,-60.690788250000004
2744,3153,0.1483195,0.0380985,1574.28125,85.2489166,-84.5723686
2745,3154,0.15029350000000002,0.034733299999999995,1574.28125,80.377552,-108.45394885000002
2746,3155,0.15211599999999997,0.03188505,1574.28125,75.50618739999999,-132.335529
2747,3156,0.1539195,0.0296232,1574.28125,70.634819,-156.2171095
2748,3157,0.155701,0.027591150000000002,1574.28125,65.7634525,-180.098686
2749,3158,0.1573325,0.025788400000000003,1574.28125,60.892086,-203.9802625
2750,3159,0.1590095,0.0240938,1574.28125,56.0207195,-227.86183949999997
2751,3160,0.160339,0.0222105,1574.28125,51.14935299999999,-251.74341599999997
2752,3161,0.16173500000000002,0.0203988,1574.28125,46.277984599999996,-275.625
2753,3162,0.162534,0.01790485,1574.28125,41.406618099999996,-299.5065765
2754,3163,0.16334300000000002,0.0154491,1574.28125,36.535251599999995,-323.388153
2755,3164,0.16332000000000002,0.011713749999999998,1574.28125,31.6638832,-347.269745
2756,3165,0.16289599999999999,0.0077840900000000005,1574.28125,26.7925167,-371.1513215
2757,3166,0.161862,0.00224983,1574.28125,21.9211502,-395.032898
2758,3167,0.1593,-0.00462173,1574.28125,17.049784199999998,-418.9144745
2759,3168,0.1581055,-0.01175975,1574.28125,12.1784177,-442.796051
2760,3169,0.154566,-0.02496785,1574.28125,7.30705118,-466.67762749999997
2761,3170,0.167878,-0.030336899999999997,1574.28125,2.43568468,-490.559204
2762,3171,0.14827400000000002,0.037949250000000004,1549.177065,90.120285,-60.690788250000004
2763,3172,0.1504025,0.0345161,1549.177065,85.2489166,-84.5723686
2764,3173,0.152087,0.0316607,1549.177065,80.377552,-108.45394885000002
2765,3174,0.15382200000000001,0.0295382,1549.177065,75.50618739999999,-132.335529
2766,3175,0.155557,0.027624799999999998,1549.177065,70.634819,-156.2171095
2767,3176,0.157219,0.02610815,1549.177065,65.7634525,-180.098686
2768,3177,0.15913100000000002,0.0246742,1549.177065,60.892086,-203.9802625
2769,3178,0.160765,0.02327205,1549.177065,56.0207195,-227.86183949999997
2770,3179,0.1627575,0.021925350000000003,1549.177065,51.14935299999999,-251.74341599999997
2771,3180,0.1642575,0.020245899999999997,1549.177065,46.277984599999996,-275.625
2772,3181,0.166209,0.01864025,1549.177065,41.406618099999996,-299.5065765
2773,3182,0.167466,0.016212900000000002,1549.177065,36.535251599999995,-323.388153
2774,3183,0.1690355,0.01390145,1549.177065,31.6638832,-347.269745
2775,3184,0.1701005,0.010021200000000001,1549.177065,26.7925167,-371.1513215
2776,3185,0.1700325,0.006225155,1549.177065,21.9211502,-395.032898
2777,3186,0.1716545,0.00030118850000000004,1549.177065,17.049784199999998,-418.9144745
2778,3187,0.1673385,-0.0057461249999999995,1549.177065,12.1784177,-442.796051
2779,3188,0.1747895,-0.01332545,1549.177065,7.30705118,-466.67762749999997
2780,3189,0.15715400000000002,-0.009780025,1549.177065,2.43568468,-490.559204
2781,3190,0.14928850000000002,0.03282855,1524.0729350000001,90.120285,-60.690788250000004
2782,3191,0.1510455,0.0298939,1524.0729350000001,85.2489166,-84.5723686
2783,3192,0.15279399999999999,0.0280094,1524.0729350000001,80.377552,-108.45394885000002
2784,3193,0.154495,0.02635365,1524.0729350000001,75.50618739999999,-132.335529
2785,3194,0.15618100000000001,0.025318649999999998,1524.0729350000001,70.634819,-156.2171095
2786,3195,0.158224,0.02429625,1524.0729350000001,65.7634525,-180.098686
2787,3196,0.16003099999999998,0.023463599999999998,1524.0729350000001,60.892086,-203.9802625
2788,3197,0.1623275,0.022638199999999997,1524.0729350000001,56.0207195,-227.86183949999997
2789,3198,0.164217,0.0217332,1524.0729350000001,51.14935299999999,-251.74341599999997
2790,3199,0.1667385,0.0208813,1524.0729350000001,46.277984599999996,-275.625
2791,3200,0.168657,0.01964565,1524.0729350000001,41.406618099999996,-299.5065765
2792,3201,0.17138949999999997,0.018601600000000003,1524.0729350000001,36.535251599999995,-323.388153
2793,3202,0.17337550000000002,0.01653005,1524.0729350000001,31.6638832,-347.269745
2794,3203,0.1759495,0.01505565,1524.0729350000001,26.7925167,-371.1513215
2795,3204,0.178348,0.01099255,1524.0729350000001,21.9211502,-395.032898
2796,3205,0.17837750000000002,0.008667919999999999,1524.0729350000001,17.049784199999998,-418.9144745
2797,3206,0.181807,0.001842925,1524.0729350000001,12.1784177,-442.796051
2798,3207,0.174468,0.00218846,1524.0729350000001,7.30705118,-466.67762749999997
2799,3208,0.160906,-0.004946275,1524.0729350000001,2.43568468,-490.559204
2800,3209,0.14941949999999998,0.027316549999999995,1498.96875,90.120285,-60.690788250000004
2801,3210,0.150788,0.0251834,1498.96875,85.2489166,-84.5723686
2802,3211,0.1523195,0.02367975,1498.96875,80.377552,-108.45394885000002
2803,3212,0.1539215,0.02320905,1498.96875,75.50618739999999,-132.335529
2804,3213,0.1561035,0.022701350000000002,1498.96875,70.634819,-156.2171095
2805,3214,0.158025,0.02250075,1498.96875,65.7634525,-180.098686
2806,3215,0.16051300000000002,0.0222432,1498.96875,60.892086,-203.9802625
2807,3216,0.162632,0.0220402,1498.96875,56.0207195,-227.86183949999997
2808,3217,0.165382,0.02183575,1498.96875,51.14935299999999,-251.74341599999997
2809,3218,0.16763699999999998,0.021552500000000002,1498.96875,46.277984599999996,-275.625
2810,3219,0.170761,0.0213911,1498.96875,41.406618099999996,-299.5065765
2811,3220,0.17314849999999998,0.020846299999999998,1498.96875,36.535251599999995,-323.388153
2812,3221,0.1768705,0.02080345,1498.96875,31.6638832,-347.269745
2813,3222,0.179427,0.0192772,1498.96875,26.7925167,-371.1513215
2814,3223,0.183694,0.0194243,1498.96875,21.9211502,-395.032898
2815,3224,0.186185,0.01459435,1498.96875,17.049784199999998,-418.9144745
2816,3225,0.1863865,0.0145565,1498.96875,12.1784177,-442.796051
2817,3226,0.1809495,0.00636917,1498.96875,7.30705118,-466.67762749999997
2818,3227,0.16902249999999996,0.00010930250000000004,1498.96875,2.43568468,-490.559204
2819,3228,0.1489405,0.0215816,1473.864565,90.120285,-60.690788250000004
2820,3229,0.149376,0.01979525,1473.864565,85.2489166,-84.5723686
2821,3230,0.150412,0.019844050000000002,1473.864565,80.377552,-108.45394885000002
2822,3231,0.15272199999999997,0.0199019,1473.864565,75.50618739999999,-132.335529
2823,3232,0.1546785,0.020340999999999998,1473.864565,70.634819,-156.2171095
2824,3233,0.157375,0.0206918,1473.864565,65.7634525,-180.098686
2825,3234,0.1596685,0.021116,1473.864565,60.892086,-203.9802625
2826,3235,0.1625375,0.02149185,1473.864565,56.0207195,-227.86183949999997
2827,3236,0.1649875,0.02191875,1473.864565,51.14935299999999,-251.74341599999997
2828,3237,0.1681195,0.0223754,1473.864565,46.277984599999996,-275.625
2829,3238,0.170692,0.022863549999999996,1473.864565,41.406618099999996,-299.5065765
2830,3239,0.174408,0.023591550000000003,1473.864565,36.535251599999995,-323.388153
2831,3240,0.1770715,0.02399435,1473.864565,31.6638832,-347.269745
2832,3241,0.1821635,0.02530885,1473.864565,26.7925167,-371.1513215
2833,3242,0.184541,0.024534149999999998,1473.864565,21.9211502,-395.032898
2834,3243,0.1922595,0.026541250000000002,1473.864565,17.049784199999998,-418.9144745
2835,3244,0.19150850000000003,0.019431999999999998,1473.864565,12.1784177,-442.796051
2836,3245,0.1894835,0.01581405,1473.864565,7.30705118,-466.67762749999997
2837,3246,0.1805005,0.003953215,1473.864565,2.43568468,-490.559204
2838,3247,0.14671499999999998,0.01458595,1448.7604350000001,90.120285,-60.690788250000004
2839,3248,0.14599849999999998,0.0153821,1448.7604350000001,85.2489166,-84.5723686
2840,3249,0.14827250000000003,0.016131150000000004,1448.7604350000001,80.377552,-108.45394885000002
2841,3250,0.1500755,0.01715755,1448.7604350000001,75.50618739999999,-132.335529
2842,3251,0.153022,0.018154750000000004,1448.7604350000001,70.634819,-156.2171095
2843,3252,0.155481,0.0191135,1448.7604350000001,65.7634525,-180.098686
2844,3253,0.158495,0.020026099999999998,1448.7604350000001,60.892086,-203.9802625
2845,3254,0.16110800000000003,0.0209687,1448.7604350000001,56.0207195,-227.86183949999997
2846,3255,0.16417750000000003,0.021892299999999996,1448.7604350000001,51.14935299999999,-251.74341599999997
2847,3256,0.166852,0.022988750000000002,1448.7604350000001,46.277984599999996,-275.625
2848,3257,0.170189,0.0241382,1448.7604350000001,41.406618099999996,-299.5065765
2849,3258,0.17291600000000001,0.025553799999999998,1448.7604350000001,36.535251599999995,-323.388153
2850,3259,0.177137,0.027242400000000003,1448.7604350000001,31.6638832,-347.269745
2851,3260,0.1797895,0.028931449999999997,1448.7604350000001,26.7925167,-371.1513215
2852,3261,0.186758,0.03150185,1448.7604350000001,21.9211502,-395.032898
2853,3262,0.1883395,0.0320961,1448.7604350000001,17.049784199999998,-418.9144745
2854,3263,0.2028645,0.0344718,1448.7604350000001,12.1784177,-442.796051
2855,3264,0.2003365,0.0209177,1448.7604350000001,7.30705118,-466.67762749999997
2856,3265,0.192497,0.01050055,1448.7604350000001,2.43568468,-490.559204
2857,3266,0.1409845,0.009649195,1423.65625,90.120285,-60.690788250000004
2858,3267,0.14312049999999998,0.01170415,1423.65625,85.2489166,-84.5723686
2859,3268,0.144512,0.0132565,1423.65625,80.377552,-108.45394885000002
2860,3269,0.147661,0.0149718,1423.65625,75.50618739999999,-132.335529
2861,3270,0.150291,0.01633465,1423.65625,70.634819,-156.2171095
2862,3271,0.1534955,0.0177389,1423.65625,65.7634525,-180.098686
2863,3272,0.1563025,0.0190356,1423.65625,60.892086,-203.9802625
2864,3273,0.15937649999999998,0.020326300000000002,1423.65625,56.0207195,-227.86183949999997
2865,3274,0.1621435,0.021748999999999998,1423.65625,51.14935299999999,-251.74341599999997
2866,3275,0.165169,0.0231601,1423.65625,46.277984599999996,-275.625
2867,3276,0.167902,0.0249613,1423.65625,41.406618099999996,-299.5065765
2868,3277,0.17116599999999998,0.02675085,1423.65625,36.535251599999995,-323.388153
2869,3278,0.17392749999999998,0.0292351,1423.65625,31.6638832,-347.269745
2870,3279,0.1783455,0.03164195,1423.65625,26.7925167,-371.1513215
2871,3280,0.1812635,0.03514395,1423.65625,21.9211502,-395.032898
2872,3281,0.1900755,0.03799735,1423.65625,17.049784199999998,-418.9144745
2873,3282,0.1936055,0.04201715,1423.65625,12.1784177,-442.796051
2874,3283,0.223737,0.04411635,1423.65625,7.30705118,-466.67762749999997
2875,3284,0.2165335,0.01633275,1423.65625,2.43568468,-490.559204
2876,3285,0.137473,0.007244995000000001,1398.552065,90.120285,-60.690788250000004
2877,3286,0.1385165,0.00903722,1398.552065,85.248918525,-84.5723686
2878,3287,0.1415925,0.0115771,1398.552065,80.377553925,-108.45394885000002
2879,3288,0.1444455,0.013168949999999999,1398.552065,75.50618739999999,-132.335529
2880,3289,0.1477945,0.014995950000000001,1398.552065,70.634819,-156.2171095
2881,3290,0.150858,0.0164932,1398.552065,65.7634525,-180.098686
2882,3291,0.1540065,0.0180533,1398.552065,60.892086,-203.9802625
2883,3292,0.1569125,0.0196186,1398.552065,56.0207195,-227.86183949999997
2884,3293,0.15979300000000002,0.02118435,1398.552065,51.14935299999999,-251.74341599999997
2885,3294,0.16251400000000002,0.0230502,1398.552065,46.277984599999996,-275.625
2886,3295,0.165212,0.02486815,1398.552065,41.406618099999996,-299.5065765
2887,3296,0.16788000000000003,0.0273526,1398.552065,36.535251599999995,-323.388153
2888,3297,0.17067300000000002,0.0296001,1398.552065,31.663883674999997,-347.269745
2889,3298,0.173734,0.0332052,1398.552065,26.792517175,-371.1513215
2890,3299,0.177537,0.035724450000000005,1398.552065,21.921150675,-395.032898
2891,3300,0.1828015,0.041644299999999995,1398.552065,17.049784199999998,-418.9144745
2892,3301,0.1915865,0.04333095,1398.552065,12.178417465,-442.796051
2893,3302,0.2074335,0.05657285,1398.552065,7.307050825000001,-466.67762749999997
2894,3303,0.264183,0.04974675,1398.552065,2.435684085,-490.559204
2895,3304,0.3162935,0.06905220000000001,1198.5,-2.4356840876332786,-490.559204
2896,3305,0.253185,0.06641005,1198.5,-7.307050825,-466.67762749999997
2897,3306,0.22665049999999998,0.04668155,1198.5,-12.178417465,-442.796051
2898,3307,0.1995885,0.0367115,1198.5,-17.049784199999998,-418.9144745
2899,3308,0.175883,0.02811695,1198.5,-21.921150675,-395.032898
2900,3309,0.151122,0.02136015,1198.5,-26.792517174999997,-371.1513215
2901,3310,0.1266475,0.0171944,1198.5,-31.663883674999997,-347.26974500000006
2902,3311,0.102206,0.0138094,1198.5,-36.535251599999995,-323.388153
2903,3312,0.07775370000000001,0.011768899999999999,1198.5,-41.406618099999996,-299.5065765
2904,3313,0.053796300000000005,0.01036785,1198.5,-46.277984599999996,-275.625
2905,3314,0.03126165,0.009585445,1198.5,-51.14935299999999,-251.743416
2906,3315,0.0189858,0.009498969999999999,1198.5,-56.0207195,-227.86183949999997
2907,3316,0.029227499999999997,0.00964376,1198.5,-60.89208599999999,-203.98026249999998
2908,3317,0.051434549999999996,0.010747800000000002,1198.5,-65.7634525,-180.09868600000001
2909,3318,0.07521894999999999,0.011732349999999999,1198.5,-70.634819,-156.2171095
2910,3319,0.0994453,0.014226349999999999,1198.5,-75.50618739999999,-132.335529
2911,3320,0.124196,0.01582115,1198.5,-80.377553925,-108.45394885000002
2912,3321,0.1495165,0.020158099999999998,1198.5,-85.24891852500001,-84.5723686
2913,3322,0.179229,0.021006,1198.5,-90.120285,-60.69078825
2914,3323,0.2762515,0.03676069999999999,1173.5,-2.43568468,-490.559204
2915,3324,0.2858345,0.056610799999999996,1173.5,-7.307051179999999,-466.67762749999997
2916,3325,0.237749,0.0445688,1173.5,-12.1784177,-442.796051
2917,3326,0.21666449999999998,0.0379578,1173.5,-17.049784199999998,-418.9144745
2918,3327,0.186348,0.0300599,1173.5,-21.9211502,-395.032898
2919,3328,0.1602405,0.0262788,1173.5,-26.7925167,-371.1513215
2920,3329,0.13426549999999998,0.022812199999999998,1173.5,-31.6638832,-347.26974500000006
2921,3330,0.10873150000000001,0.02077165,1173.5,-36.535251599999995,-323.388153
2922,3331,0.08429790000000001,0.019218449999999998,1173.5,-41.406618099999996,-299.5065765
2923,3332,0.0608123,0.0182655,1173.5,-46.277984599999996,-275.625
2924,3333,0.04101665,0.0177951,1173.5,-51.14935299999999,-251.743416
2925,3334,0.0310651,0.01759735,1173.5,-56.0207195,-227.86183949999997
2926,3335,0.0396054,0.017995249999999997,1173.5,-60.89208599999999,-203.98026249999998
2927,3336,0.05911160000000001,0.01848515,1173.5,-65.7634525,-180.09868600000001
2928,3337,0.08195015,0.019883599999999998,1173.5,-70.634819,-156.2171095
2929,3338,0.10675000000000001,0.02119795,1173.5,-75.50618739999999,-132.335529
2930,3339,0.1310045,0.023852199999999997,1173.5,-80.377552,-108.45394885000002
2931,3340,0.159323,0.025972500000000003,1173.5,-85.2489166,-84.5723686
2932,3341,0.1845545,0.028839700000000003,1173.5,-90.120285,-60.69078825
2933,3342,0.27161250000000003,0.03693975,1148.5,-2.43568468,-490.559204
2934,3343,0.2688335,0.031124699999999998,1148.5,-7.307051179999999,-466.67762749999997
2935,3344,0.25675099999999995,0.04060985,1148.5,-12.1784177,-442.796051
2936,3345,0.2201455,0.03019765,1148.5,-17.049784199999998,-418.9144745
2937,3346,0.19279849999999998,0.0302924,1148.5,-21.9211502,-395.032898
2938,3347,0.1651325,0.027656099999999996,1148.5,-26.7925167,-371.1513215
2939,3348,0.138966,0.02691765,1148.5,-31.6638832,-347.26974500000006
2940,3349,0.114144,0.0260718,1148.5,-36.535251599999995,-323.388153
2941,3350,0.09011364999999999,0.0255651,1148.5,-41.406618099999996,-299.5065765
2942,3351,0.06857395,0.025255349999999996,1148.5,-46.277984599999996,-275.625
2943,3352,0.05102895,0.0250605,1148.5,-51.14935299999999,-251.743416
2944,3353,0.04354765,0.025088449999999998,1148.5,-56.0207195,-227.86183949999997
2945,3354,0.050291699999999995,0.02519685,1148.5,-60.89208599999999,-203.98026249999998
2946,3355,0.0670723,0.025630349999999996,1148.5,-65.7634525,-180.09868600000001
2947,3356,0.08920295,0.0262082,1148.5,-70.634819,-156.2171095
2948,3357,0.112188,0.02717865,1148.5,-75.50618739999999,-132.335529
2949,3358,0.1388015,0.028539499999999995,1148.5,-80.377552,-108.45394885000002
2950,3359,0.16266,0.02903915,1148.5,-85.2489166,-84.5723686
2951,3360,0.1949595,0.030268249999999997,1148.5,-90.120285,-60.69078825
2952,3361,0.270965,0.0314999,1123.5,-2.43568468,-490.559204
2953,3362,0.271584,0.031948399999999995,1123.5,-7.307051179999999,-466.67762749999997
2954,3363,0.2510155,0.018349499999999998,1123.5,-12.1784177,-442.796051
2955,3364,0.2181555,0.026921599999999997,1123.5,-17.049784199999998,-418.9144745
2956,3365,0.19161499999999998,0.026713099999999997,1123.5,-21.9211502,-395.032898
2957,3366,0.1654485,0.029203399999999997,1123.5,-26.7925167,-371.1513215
2958,3367,0.1411075,0.03009935,1123.5,-31.6638832,-347.26974500000006
2959,3368,0.11748,0.030957949999999998,1123.5,-36.535251599999995,-323.388153
2960,3369,0.09575424999999999,0.031533500000000006,1123.5,-41.406618099999996,-299.5065765
2961,3370,0.07620755,0.031879500000000005,1123.5,-46.277984599999996,-275.625
2962,3371,0.061751150000000005,0.03208565000000001,1123.5,-51.14935299999999,-251.743416
2963,3372,0.055764799999999996,0.032187,1123.5,-56.0207195,-227.86183949999997
2964,3373,0.0608749,0.0321273,1123.5,-60.89208599999999,-203.98026249999998
2965,3374,0.075528,0.03211215,1123.5,-65.7634525,-180.09868600000001
2966,3375,0.09428955,0.03180605,1123.5,-70.634819,-156.2171095
2967,3376,0.1175,0.03183685,1123.5,-75.50618739999999,-132.335529
2968,3377,0.139789,0.03067515,1123.5,-80.377552,-108.45394885000002
2969,3378,0.16619,0.03027405,1123.5,-85.2489166,-84.5723686
2970,3379,0.1883845,0.0235912,1123.5,-90.120285,-60.69078825
2971,3380,0.290743,0.0351066,1098.5,-2.43568468,-490.559204
2972,3381,0.2772135,0.0043135050000000005,1098.5,-7.307051179999999,-466.67762749999997
2973,3382,0.22779850000000001,0.0135605,1098.5,-12.1784177,-442.796051
2974,3383,0.2102345,0.0201019,1098.5,-17.049784199999998,-418.9144745
2975,3384,0.184442,0.0270007,1098.5,-21.9211502,-395.032898
2976,3385,0.1628485,0.031023900000000004,1098.5,-26.7925167,-371.1513215
2977,3386,0.140996,0.034210599999999994,1098.5,-31.6638832,-347.26974500000006
2978,3387,0.120491,0.0363957,1098.5,-36.535251599999995,-323.388153
2979,3388,0.10133745,0.03789135,1098.5,-41.406618099999996,-299.5065765
2980,3389,0.0850534,0.0388496,1098.5,-46.277984599999996,-275.625
2981,3390,0.0732826,0.03941615,1098.5,-51.14935299999999,-251.743416
2982,3391,0.0685262,0.0394788,1098.5,-56.0207195,-227.86183949999997
2983,3392,0.07264489999999998,0.0393888,1098.5,-60.89208599999999,-203.98026249999998
2984,3393,0.08336814999999999,0.0385621,1098.5,-65.7634525,-180.09868600000001
2985,3394,0.10026565000000001,0.0377937,1098.5,-70.634819,-156.2171095
2986,3395,0.11832999999999999,0.0355709,1098.5,-75.50618739999999,-132.335529
2987,3396,0.1399195,0.033609,1098.5,-80.377552,-108.45394885000002
2988,3397,0.159327,0.0279731,1098.5,-85.2489166,-84.5723686
2989,3398,0.176892,0.021468799999999996,1098.5,-90.120285,-60.69078825
2990,3399,0.3197685,-0.008614025,1073.5,-2.43568468,-490.559204
2991,3400,0.23434300000000002,-0.006891095,1073.5,-7.307051179999999,-466.67762749999997
2992,3401,0.21649649999999998,0.01296205,1073.5,-12.1784177,-442.796051
2993,3402,0.193744,0.021143750000000003,1073.5,-17.049784199999998,-418.9144745
2994,3403,0.1772435,0.029926599999999998,1073.5,-21.9211502,-395.032898
2995,3404,0.159056,0.0358183,1073.5,-26.7925167,-371.1513215
2996,3405,0.14147549999999998,0.04016355,1073.5,-31.6638832,-347.26974500000006
2997,3406,0.1244375,0.0432607,1073.5,-36.535251599999995,-323.388153
2998,3407,0.108798,0.04536369999999999,1073.5,-41.406618099999996,-299.5065765
2999,3408,0.0956901,0.04676345,1073.5,-46.277984599999996,-275.625
3000,3409,0.0864711,0.0474275,1073.5,-51.14935299999999,-251.743416
3001,3410,0.08303015,0.04772994999999999,1073.5,-56.0207195,-227.86183949999997
3002,3411,0.08529655,0.0471502,1073.5,-60.89208599999999,-203.98026249999998
3003,3412,0.09405885,0.046444849999999996,1073.5,-65.7634525,-180.09868600000001
3004,3413,0.10566500000000001,0.04420285,1073.5,-70.634819,-156.2171095
3005,3414,0.1211865,0.04190875,1073.5,-75.50618739999999,-132.335529
3006,3415,0.1356405,0.0365937,1073.5,-80.377552,-108.45394885000002
3007,3416,0.1505505,0.0306115,1073.5,-85.2489166,-84.5723686
3008,3417,0.1615205,0.02024725,1073.5,-90.120285,-60.69078825
3009,3418,0.27078599999999997,-0.0031293650000000003,1048.5,-2.435684085,-490.559204
3010,3419,0.2488555,-0.0031293650000000003,1048.5,-7.307050825,-466.67762749999997
3011,3420,0.226926,-0.0031293700000000002,1048.5,-12.178417465,-442.796051
3012,3421,0.2049975,-0.0031293650000000003,1048.5,-17.049784199999998,-418.9144745
3013,3422,0.183071,-0.0031293700000000002,1048.5,-21.921150675,-395.032898
3014,3423,0.161147,-0.0031293650000000003,1048.5,-26.792517175,-371.1513215
3015,3424,0.139226,-0.0031293700000000002,1048.5,-31.663883675,-347.26974500000006
3016,3425,0.1173105,-0.0031293700000000002,1048.5,-36.535251599999995,-323.388153
3017,3426,0.0954039,-0.0031293650000000003,1048.5,-41.406618099999996,-299.5065765
3018,3427,0.07351469999999999,-0.0031293700000000002,1048.5,-46.277984599999996,-275.625
3019,3428,0.05166445,-0.0031293650000000003,1048.5,-51.14935299999999,-251.743416
3020,3429,0.029939,-0.0031293700000000002,1048.5,-56.0207195,-227.86183949999997
3021,3430,0.009265184999999999,-0.0031293650000000003,1048.5,-60.89208599999999,-203.98026249999998
3022,3431,0.01541145,-0.0031293700000000002,1048.5,-65.7634525,-180.09868600000001
3023,3432,0.0367635,-0.0031293650000000003,1048.5,-70.634819,-156.2171095
3024,3433,0.05854845,-0.0031293650000000003,1048.5,-75.50618739999999,-132.335529
3025,3434,0.08041515,-0.0031293700000000002,1048.5,-80.377553925,-108.45394885000002
3026,3435,0.102311,-0.0031293700000000002,1048.5,-85.248918525,-84.5723686
3027,3436,0.124221,-0.0031293600000000003,1048.5,-90.120285,-60.69078825
3028,3437,0.055369550000000003,0.029945700000000002,2578.447875,100.0139923,-12.1875
3029,3438,0.044455,0.02559455,2578.447875,95.04197690000001,-36.5625
3030,3439,0.0590691,0.033700400000000005,2553.34375,100.0139923,-12.1875
3031,3440,0.0432436,0.0249512,2553.34375,95.04197690000001,-36.5625
3032,3441,0.0592663,0.03417595,2528.239625,100.0139923,-12.1875
3033,3442,0.04751025,0.027211899999999997,2528.239625,95.04197690000001,-36.5625
3034,3443,0.0602923,0.03429644999999999,2503.135375,100.0139923,-12.1875
3035,3444,0.0487958,0.0272728,2503.135375,95.04197690000001,-36.5625
3036,3445,0.06132170000000001,0.03362295,2478.03125,100.0139923,-12.1875
3037,3446,0.04924919999999999,0.0265614,2478.03125,95.04197690000001,-36.5625
3038,3447,0.0614764,0.03190085,2452.927125,100.0139923,-12.1875
3039,3448,0.049518450000000006,0.02515295,2452.927125,95.04197690000001,-36.5625
3040,3449,0.06292,0.029635299999999996,2427.822875,100.0139923,-12.1875
3041,3450,0.0463183,0.021449549999999998,2427.822875,95.04197690000001,-36.5625
3042,3451,0.0627023,0.0246508,2402.71875,100.0139923,-12.1875
3043,3452,0.0448499,0.02104955,2402.71875,95.04197690000001,-36.5625
3044,3453,0.06561495,0.0375117,2377.614625,100.0139923,-12.1875
3045,3454,0.0631192,0.033008499999999996,2377.614625,95.04197690000001,-36.5625
3046,3455,0.0722679,0.0402426,2352.510375,100.0139923,-12.1875
3047,3456,0.061389950000000006,0.0314847,2352.510375,95.04197690000001,-36.5625
3048,3457,0.07367125000000001,0.0390896,2327.40625,100.0139923,-12.1875
3049,3458,0.06593685,0.0327272,2327.40625,95.04197690000001,-36.5625
3050,3459,0.07551885,0.03823425,2302.302125,100.0139923,-12.1875
3051,3460,0.06806545,0.0317359,2302.302125,95.04197690000001,-36.5625
3052,3461,0.0772238,0.03657135,2277.197875,100.0139923,-12.1875
3053,3462,0.06972205000000001,0.0306248,2277.197875,95.04197690000001,-36.5625
3054,3463,0.07855385,0.03481825,2252.09375,100.0139923,-12.1875
3055,3464,0.07147485,0.02892745,2252.09375,95.04197690000001,-36.5625
3056,3465,0.08124780000000001,0.032871449999999997,2226.989625,100.0139923,-12.1875
3057,3466,0.07187755000000001,0.02631835,2226.989625,95.04197690000001,-36.5625
3058,3467,0.08222570000000001,0.02926275,2201.885375,100.0139923,-12.1875
3059,3468,0.07268565,0.023413999999999997,2201.885375,95.04197690000001,-36.5625
3060,3469,0.08389815,0.025037999999999998,2176.78125,100.0139923,-12.1875
3061,3470,0.07038525,0.017982949999999998,2176.78125,95.04197690000001,-36.5625
3062,3471,0.08545785,0.0186284,2151.677125,100.0139923,-12.1875
3063,3472,0.06541849999999999,0.01643535,2151.677125,95.04197690000001,-36.5625
3064,3473,0.08850849999999999,0.04566465,2126.572875,100.0139923,-12.1875
3065,3474,0.0905222,0.04049695,2126.572875,95.04197690000001,-36.5625
3066,3475,0.09591475,0.0467964,2101.46875,100.0139923,-12.1875
3067,3476,0.08974009999999999,0.03821935,2101.46875,95.04197690000001,-36.5625
3068,3477,0.0980148,0.0439365,2076.364625,100.0139923,-12.1875
3069,3478,0.0936971,0.03780245,2076.364625,95.04197690000001,-36.5625
3070,3479,0.09952815,0.041417949999999995,2051.260435,100.0139923,-12.1875
3071,3480,0.0958784,0.0356846,2051.260435,95.04197690000001,-36.5625
3072,3481,0.101216,0.03890515,2026.15625,100.0139923,-12.1875
3073,3482,0.09804845,0.033593200000000004,2026.15625,95.04197690000001,-36.5625
3074,3483,0.103516,0.036438250000000005,2001.052065,100.0139923,-12.1875
3075,3484,0.0992644,0.03083395,2001.052065,95.04197690000001,-36.5625
3076,3485,0.105124,0.03337365,1975.9479350000001,100.0139923,-12.1875
3077,3486,0.101132,0.02818675,1975.9479350000001,95.04197690000001,-36.5625
3078,3487,0.108017,0.030323549999999998,1950.84375,100.0139923,-12.1875
3079,3488,0.10154735,0.02408435,1950.84375,95.04197690000001,-36.5625
3080,3489,0.109507,0.0250461,1925.739565,100.0139923,-12.1875
3081,3490,0.10211250000000001,0.019982849999999996,1925.739565,95.04197690000001,-36.5625
3082,3491,0.110459,0.018951549999999998,1900.6354350000001,100.0139923,-12.1875
3083,3492,0.10011765,0.012979000000000001,1900.6354350000001,95.04197690000001,-36.5625
3084,3493,0.112354,0.011234115,1875.53125,100.0139923,-12.1875
3085,3494,0.0927691,0.01041701,1875.53125,95.04197690000001,-36.5625
3086,3495,0.116462,0.05293410000000001,1850.427065,100.0139923,-12.1875
3087,3496,0.12015799999999999,0.047165250000000006,1850.427065,95.04197690000001,-36.5625
3088,3497,0.12389,0.05248765,1825.3229350000001,100.0139923,-12.1875
3089,3498,0.120476,0.0438689,1825.3229350000001,95.04197690000001,-36.5625
3090,3499,0.126027,0.047606699999999995,1800.21875,100.0139923,-12.1875
3091,3500,0.123874,0.04172,1800.21875,95.04197690000001,-36.5625
3092,3501,0.1268385,0.04336735,1775.114565,100.0139923,-12.1875
3093,3502,0.12588,0.03820615,1775.114565,95.04197690000001,-36.5625
3094,3503,0.128133,0.0396233,1750.0104350000001,100.0139923,-12.1875
3095,3504,0.1277145,0.03474405,1750.0104350000001,95.04197690000001,-36.5625
3096,3505,0.13024000000000002,0.035966700000000004,1724.90625,100.0139923,-12.1875
3097,3506,0.12859149999999997,0.030818099999999998,1724.90625,95.04197690000001,-36.5625
3098,3507,0.13150099999999998,0.0317313,1699.802065,100.0139923,-12.1875
3099,3508,0.130223,0.02702485,1699.802065,95.04197690000001,-36.5625
3100,3509,0.13427650000000002,0.0275286,1674.6979350000001,100.0139923,-12.1875
3101,3510,0.1303405,0.02166975,1674.6979350000001,95.04197690000001,-36.5625
3102,3511,0.135713,0.02069465,1649.59375,100.0139923,-12.1875
3103,3512,0.130446,0.016351499999999998,1649.59375,95.04197690000001,-36.5625
3104,3513,0.135872,0.012902199999999999,1624.489565,100.0139923,-12.1875
3105,3514,0.1282945,0.008041695,1624.489565,95.04197690000001,-36.5625
3106,3515,0.13735999999999998,0.004052165,1599.3854350000001,100.0139923,-12.1875
3107,3516,0.11942050000000001,0.00443303,1599.3854350000001,95.04197690000001,-36.5625
3108,3517,0.1386105,0.05384525,1574.28125,100.0139923,-12.1875
3109,3518,0.14385699999999998,0.04747565,1574.28125,95.04197690000001,-36.5625
3110,3519,0.146131,0.05142945,1549.177065,100.0139923,-12.1875
3111,3520,0.1452975,0.04219285,1549.177065,95.04197690000001,-36.5625
3112,3521,0.149031,0.04349325,1524.0729350000001,100.0139923,-12.1875
3113,3522,0.14750000000000002,0.0374922,1524.0729350000001,95.04197690000001,-36.5625
3114,3523,0.148687,0.03628115,1498.96875,100.0139923,-12.1875
3115,3524,0.1492755,0.031297399999999996,1498.96875,95.04197690000001,-36.5625
3116,3525,0.1502915,0.029477950000000003,1473.864565,100.0139923,-12.1875
3117,3526,0.1490035,0.0242517,1473.864565,95.04197690000001,-36.5625
3118,3527,0.1505975,0.020794700000000003,1448.7604350000001,100.0139923,-12.1875
3119,3528,0.148347,0.0170024,1448.7604350000001,95.04197690000001,-36.5625
3120,3529,0.14927,0.011077899999999998,1423.65625,100.0139923,-12.1875
3121,3530,0.145786,0.0077223299999999995,1423.65625,95.04197690000001,-36.5625
3122,3531,0.149575,0.0015110235,1398.552065,100.0139923,-12.1875
3123,3532,0.1364795,0.002457705,1398.552065,95.04197690000001,-36.5625
3124,3533,0.21334599999999998,0.030136600000000003,1198.5,-95.0419769,-36.5625
3125,3534,0.29731699999999994,0.02015845,1198.5,-100.01399229999998,-12.1875
3126,3535,0.2331935,0.0310135,1173.5,-95.0419769,-36.5625
3127,3536,0.26667549999999995,0.006957395,1173.5,-100.01399229999998,-12.1875
3128,3537,0.221773,0.017490549999999997,1148.5,-95.0419769,-36.5625
3129,3538,0.24291649999999998,-0.002014935,1148.5,-100.01399229999998,-12.1875
3130,3539,0.204567,0.0131048,1123.5,-95.0419769,-36.5625
3131,3540,0.2185105,-0.00852151,1123.5,-100.01399229999998,-12.1875
3132,3541,0.1881085,0.0096458,1098.5,-95.0419769,-36.5625
3133,3542,0.1874065,-0.00990467,1098.5,-100.01399229999998,-12.1875
3134,3543,0.1670705,0.00775925,1073.5,-95.0419769,-36.5625
3135,3544,0.159038,-0.009089915,1073.5,-100.01399229999998,-12.1875
3136,3545,0.14636500000000002,-0.0031293650000000003,1048.5,-95.0419769,-36.5625
3137,3546,0.16874050000000002,-0.0031293650000000003,1048.5,-100.01399229999998,-12.1875
3138,3547,0.1155565,0.0211399,1398.552065,13.2644758,100.75370025000001
3139,3548,0.12230250000000001,0.025002999999999997,1423.65625,13.2644758,100.75370025000001
3140,3549,0.11576,0.02356635,1448.7604350000001,13.2644758,100.75370025000001
3141,3550,0.107923,0.023879200000000003,1473.864565,13.2644758,100.75370025000001
3142,3551,0.105291,0.024978599999999997,1498.96875,13.2644758,100.75370025000001
3143,3552,0.10259035,0.0252581,1524.0729350000001,13.2644758,100.75370025000001
3144,3553,0.09886990000000001,0.0241832,1549.177065,13.2644758,100.75370025000001
3145,3554,0.09131515000000001,0.026983600000000003,1574.28125,13.2644758,100.75370025000001
3146,3555,0.10303655,0.023481750000000003,1599.3854350000001,13.2644758,100.75370025000001
3147,3556,0.1092237,0.027171150000000005,1624.489565,13.2644758,100.75370025000001
3148,3557,0.10318555,0.02555925,1649.59375,13.2644758,100.75370025000001
3149,3558,0.0956697,0.02580875,1674.6979350000001,13.2644758,100.75370025000001
3150,3559,0.0933097,0.02605845,1699.802065,13.2644758,100.75370025000001
3151,3560,0.0881895,0.025833050000000003,1724.90625,13.2644758,100.75370025000001
3152,3561,0.08501220000000001,0.025789349999999996,1750.0104350000001,13.2644758,100.75370025000001
3153,3562,0.08127485000000001,0.02591985,1775.114565,13.2644758,100.75370025000001
3154,3563,0.07944545,0.026260600000000002,1800.21875,13.2644758,100.75370025000001
3155,3564,0.07575305,0.02515885,1825.3229350000001,13.2644758,100.75370025000001
3156,3565,0.07140275,0.0273873,1850.427065,13.2644758,100.75370025000001
3157,3566,0.08311165000000001,0.0254956,1875.53125,13.2644758,100.75370025000001
3158,3567,0.087345,0.0283571,1900.6354350000001,13.2644758,100.75370025000001
3159,3568,0.08206859999999999,0.02713115,1925.739565,13.2644758,100.75370025000001
3160,3569,0.07606445,0.0272927,1950.84375,13.2644758,100.75370025000001
3161,3570,0.07386414999999999,0.027487499999999998,1975.9479350000001,13.2644758,100.75370025000001
3162,3571,0.06967675,0.027298499999999996,2001.052065,13.2644758,100.75370025000001
3163,3572,0.06685479999999999,0.027295600000000003,2026.15625,13.2644758,100.75370025000001
3164,3573,0.06403524999999999,0.027372300000000002,2051.260435,13.2644758,100.75370025000001
3165,3574,0.0620493,0.0276202,2076.364625,13.2644758,100.75370025000001
3166,3575,0.05902915,0.026949,2101.46875,13.2644758,100.75370025000001
3167,3576,0.05717855,0.02823645,2126.572875,13.2644758,100.75370025000001
3168,3577,0.06629674999999999,0.02752,2151.677125,13.2644758,100.75370025000001
3169,3578,0.06842820000000001,0.029393,2176.78125,13.2644758,100.75370025000001
3170,3579,0.06435705,0.02866365,2201.885375,13.2644758,100.75370025000001
3171,3580,0.06027215,0.02868415,2226.989625,13.2644758,100.75370025000001
3172,3581,0.05872814999999999,0.02892045,2252.09375,13.2644758,100.75370025000001
3173,3582,0.056187850000000004,0.028801549999999995,2277.197875,13.2644758,100.75370025000001
3174,3583,0.054680450000000005,0.028944249999999998,2302.302125,13.2644758,100.75370025000001
3175,3584,0.05328029999999999,0.029060950000000002,2327.40625,13.2644758,100.75370025000001
3176,3585,0.05185035,0.02887735,2352.510375,13.2644758,100.75370025000001
3177,3586,0.05131635,0.0291603,2377.614625,13.2644758,100.75370025000001
3178,3587,0.0561853,0.0294698,2402.71875,13.2644758,100.75370025000001
3179,3588,0.05684165000000001,0.0304945,2427.822875,13.2644758,100.75370025000001
3180,3589,0.054714849999999995,0.0301359,2452.927125,13.2644758,100.75370025000001
3181,3590,0.053304899999999995,0.030197049999999996,2478.03125,13.2644758,100.75370025000001
3182,3591,0.052950750000000005,0.0303059,2503.135375,13.2644758,100.75370025000001
3183,3592,0.052516749999999994,0.030307600000000004,2528.239625,13.2644758,100.75370025000001
3184,3593,0.05278885,0.030413700000000002,2553.34375,13.2644758,100.75370025000001
3185,3594,0.052559949999999994,0.0300579,2578.447875,13.2644758,100.75370025000001
3186,3595,0.0710861,0.026921149999999998,1398.552065,38.8894758,93.88750075
3187,3596,0.076903,0.0311162,1423.65625,38.8894758,93.88750075
3188,3597,0.06980785,0.029616000000000003,1448.7604350000001,38.8894758,93.88750075
3189,3598,0.065482,0.02870365,1473.864565,38.8894758,93.88750075
3190,3599,0.06349545000000001,0.02861305,1498.96875,38.8894758,93.88750075
3191,3600,0.06130935,0.027804499999999996,1524.0729350000001,38.8894758,93.88750075
3192,3601,0.06016955,0.0269227,1549.177065,38.8894758,93.88750075
3193,3602,0.0609937,0.029495900000000005,1574.28125,38.8894758,93.88750075
3194,3603,0.06593325,0.02817355,1599.3854350000001,38.8894758,93.88750075
3195,3604,0.07209360000000001,0.0320085,1624.489565,38.8894758,93.88750075
3196,3605,0.0666252,0.030753000000000003,1649.59375,38.8894758,93.88750075
3197,3606,0.06400875,0.0302599,1674.6979350000001,38.8894758,93.88750075
3198,3607,0.06268295,0.0303323,1699.802065,38.8894758,93.88750075
3199,3608,0.060183650000000005,0.029666249999999998,1724.90625,38.8894758,93.88750075
3200,3609,0.05820175,0.0292238,1750.0104350000001,38.8894758,93.88750075
3201,3610,0.05650265,0.02891695,1775.114565,38.8894758,93.88750075
3202,3611,0.05522505,0.0285899,1800.21875,38.8894758,93.88750075
3203,3612,0.054180450000000005,0.0280061,1825.3229350000001,38.8894758,93.88750075
3204,3613,0.0554046,0.029683849999999998,1850.427065,38.8894758,93.88750075
3205,3614,0.06038465,0.0296784,1875.53125,38.8894758,93.88750075
3206,3615,0.0654496,0.0327732,1900.6354350000001,38.8894758,93.88750075
3207,3616,0.061533149999999995,0.03176905,1925.739565,38.8894758,93.88750075
3208,3617,0.0597503,0.0313844,1950.84375,38.8894758,93.88750075
3209,3618,0.05898880000000001,0.031506049999999994,1975.9479350000001,38.8894758,93.88750075
3210,3619,0.05721275,0.030990450000000003,2001.052065,38.8894758,93.88750075
3211,3620,0.0559777,0.03072585,2026.15625,38.8894758,93.88750075
3212,3621,0.05478595,0.03043315,2051.260435,38.8894758,93.88750075
3213,3622,0.05401525,0.030244600000000003,2076.364625,38.8894758,93.88750075
3214,3623,0.05325795,0.0299419,2101.46875,38.8894758,93.88750075
3215,3624,0.0541646,0.030751049999999995,2126.572875,38.8894758,93.88750075
3216,3625,0.05809035,0.03137895,2151.677125,38.8894758,93.88750075
3217,3626,0.06179054999999999,0.03367755,2176.78125,38.8894758,93.88750075
3218,3627,0.05921645,0.032879,2201.885375,38.8894758,93.88750075
3219,3628,0.0581898,0.0326621,2226.989625,38.8894758,93.88750075
3220,3629,0.057743749999999996,0.0327053,2252.09375,38.8894758,93.88750075
3221,3630,0.05666735,0.032328499999999996,2277.197875,38.8894758,93.88750075
3222,3631,0.0561181,0.032189499999999996,2302.302125,38.8894758,93.88750075
3223,3632,0.05580095,0.03210665,2327.40625,38.8894758,93.88750075
3224,3633,0.055624299999999995,0.032068700000000006,2352.510375,38.8894758,93.88750075
3225,3634,0.05561000000000001,0.032092,2377.614625,38.8894758,93.88750075
3226,3635,0.05862835000000001,0.0332381,2402.71875,38.8894758,93.88750075
3227,3636,0.0607901,0.03461095,2427.822875,38.8894758,93.88750075
3228,3637,0.05943275,0.034103,2452.927125,38.8894758,93.88750075
3229,3638,0.0589201,0.03393435,2478.03125,38.8894758,93.88750075
3230,3639,0.05878785,0.0339265,2503.135375,38.8894758,93.88750075
3231,3640,0.058748999999999996,0.0339154,2528.239625,38.8894758,93.88750075
3232,3641,0.0593058,0.03418545,2553.34375,38.8894758,93.88750075
3233,3642,0.05821225,0.03349695,2578.447875,38.8894758,93.88750075
3234,3643,0.05265210000000001,0.030189000000000004,1398.552065,61.86422350000001,80.623024
3235,3644,0.061296850000000014,0.034992499999999996,1423.65625,61.86422350000001,80.623024
3236,3645,0.056474300000000005,0.03193475,1448.7604350000001,61.86422350000001,80.623024
3237,3646,0.0556776,0.03124765,1473.864565,61.86422350000001,80.623024
3238,3647,0.0553852,0.03097345,1498.96875,61.86422350000001,80.623024
3239,3648,0.054059499999999996,0.029948950000000002,1524.0729350000001,61.86422350000001,80.623024
3240,3649,0.049349500000000004,0.027231849999999995,1549.177065,61.86422350000001,80.623024
3241,3650,0.055096400000000004,0.03091765,1574.28125,61.86422350000001,80.623024
3242,3651,0.052780099999999996,0.0297764,1599.3854350000001,61.86422350000001,80.623024
3243,3652,0.06056385,0.034165249999999994,1624.489565,61.86422350000001,80.623024
3244,3653,0.05587395,0.031538,1649.59375,61.86422350000001,80.623024
3245,3654,0.05571325,0.031494499999999995,1674.6979350000001,61.86422350000001,80.623024
3246,3655,0.05575935,0.0316322,1699.802065,61.86422350000001,80.623024
3247,3656,0.0557941,0.031530749999999996,1724.90625,61.86422350000001,80.623024
3248,3657,0.05539274999999999,0.03121025,1750.0104350000001,61.86422350000001,80.623024
3249,3658,0.055894299999999994,0.031262200000000004,1775.114565,61.86422350000001,80.623024
3250,3659,0.0552784,0.03059215,1800.21875,61.86422350000001,80.623024
3251,3660,0.0520698,0.028581799999999997,1825.3229350000001,61.86422350000001,80.623024
3252,3661,0.056559200000000004,0.0315019,1850.427065,61.86422350000001,80.623024
3253,3662,0.0549133,0.031077150000000005,1875.53125,61.86422350000001,80.623024
3254,3663,0.060855099999999995,0.03440915,1900.6354350000001,61.86422350000001,80.623024
3255,3664,0.057197000000000005,0.03244075,1925.739565,61.86422350000001,80.623024
3256,3665,0.0572375,0.03252545,1950.84375,61.86422350000001,80.623024
3257,3666,0.057267349999999995,0.0326292,1975.9479350000001,61.86422350000001,80.623024
3258,3667,0.057339749999999995,0.03260725,2001.052065,61.86422350000001,80.623024
3259,3668,0.05695865,0.0323319,2026.15625,61.86422350000001,80.623024
3260,3669,0.05723399999999999,0.03236595,2051.260435,61.86422350000001,80.623024
3261,3670,0.056529350000000006,0.031769599999999995,2076.364625,61.86422350000001,80.623024
3262,3671,0.05431445,0.03047995,2101.46875,61.86422350000001,80.623024
3263,3672,0.057108349999999995,0.0322623,2126.572875,61.86422350000001,80.623024
3264,3673,0.0573204,0.03281045,2151.677125,61.86422350000001,80.623024
3265,3674,0.0612086,0.0349951,2176.78125,61.86422350000001,80.623024
3266,3675,0.05891365,0.0337679,2201.885375,61.86422350000001,80.623024
3267,3676,0.05909104999999999,0.0338895,2226.989625,61.86422350000001,80.623024
3268,3677,0.0592424,0.033998150000000005,2252.09375,61.86422350000001,80.623024
3269,3678,0.0590167,0.0338229,2277.197875,61.86422350000001,80.623024
3270,3679,0.0586808,0.03361,2302.302125,61.86422350000001,80.623024
3271,3680,0.058197,0.033269950000000006,2327.40625,61.86422350000001,80.623024
3272,3681,0.05692,0.03258625,2352.510375,61.86422350000001,80.623024
3273,3682,0.057973449999999996,0.0332489,2377.614625,61.86422350000001,80.623024
3274,3683,0.06019115,0.03472285,2402.71875,61.86422350000001,80.623024
3275,3684,0.062075649999999996,0.035798800000000006,2427.822875,61.86422350000001,80.623024
3276,3685,0.06114195,0.035282,2452.927125,61.86422350000001,80.623024
3277,3686,0.06138540000000001,0.035412700000000005,2478.03125,61.86422350000001,80.623024
3278,3687,0.0613278,0.0353811,2503.135375,61.86422350000001,80.623024
3279,3688,0.06083695,0.035083050000000005,2528.239625,61.86422350000001,80.623024
3280,3689,0.06067275,0.0350113,2553.34375,61.86422350000001,80.623024
3281,3690,0.060274549999999996,0.0347828,2578.447875,61.86422350000001,80.623024
3282,3691,0.0821562,0.025829900000000003,1398.552065,80.623024,61.8642235
3283,3692,0.08271415,0.0301146,1423.65625,80.623024,61.8642235
3284,3693,0.0766472,0.029224350000000003,1448.7604350000001,80.623024,61.8642235
3285,3694,0.07242415,0.029703800000000002,1473.864565,80.623024,61.8642235
3286,3695,0.07496554999999999,0.0323464,1498.96875,80.623024,61.8642235
3287,3696,0.0778912,0.0328742,1524.0729350000001,80.623024,61.8642235
3288,3697,0.08183689999999999,0.03213425,1549.177065,80.623024,61.8642235
3289,3698,0.08399369999999999,0.034112899999999995,1574.28125,80.623024,61.8642235
3290,3699,0.08045540000000001,0.024638099999999996,1599.3854350000001,80.623024,61.8642235
3291,3700,0.08094225,0.02858745,1624.489565,80.623024,61.8642235
3292,3701,0.07427565,0.0275147,1649.59375,80.623024,61.8642235
3293,3702,0.06908344999999999,0.0281033,1674.6979350000001,80.623024,61.8642235
3294,3703,0.06940080000000001,0.029714450000000003,1699.802065,80.623024,61.8642235
3295,3704,0.06786785000000001,0.0303304,1724.90625,80.623024,61.8642235
3296,3705,0.06872475,0.03157735,1750.0104350000001,80.623024,61.8642235
3297,3706,0.06975909999999999,0.032836000000000004,1775.114565,80.623024,61.8642235
3298,3707,0.073512,0.033995849999999994,1800.21875,80.623024,61.8642235
3299,3708,0.07672455,0.03307235,1825.3229350000001,80.623024,61.8642235
3300,3709,0.0781975,0.0344111,1850.427065,80.623024,61.8642235
3301,3710,0.07154460000000001,0.02667535,1875.53125,80.623024,61.8642235
3302,3711,0.07279135,0.029907999999999997,1900.6354350000001,80.623024,61.8642235
3303,3712,0.0680356,0.02914745,1925.739565,80.623024,61.8642235
3304,3713,0.06406709999999999,0.02945395,1950.84375,80.623024,61.8642235
3305,3714,0.06424535,0.0306689,1975.9479350000001,80.623024,61.8642235
3306,3715,0.0626757,0.030976500000000004,2001.052065,80.623024,61.8642235
3307,3716,0.06311604999999999,0.031983199999999996,2026.15625,80.623024,61.8642235
3308,3717,0.063528,0.0327926,2051.260435,80.623024,61.8642235
3309,3718,0.06562265,0.03372235,2076.364625,80.623024,61.8642235
3310,3719,0.06681909999999999,0.03307789999999999,2101.46875,80.623024,61.8642235
3311,3720,0.06702805,0.03357665,2126.572875,80.623024,61.8642235
3312,3721,0.0626366,0.029306850000000002,2151.677125,80.623024,61.8642235
3313,3722,0.06446815,0.0317432,2176.78125,80.623024,61.8642235
3314,3723,0.06191200000000001,0.031354349999999996,2201.885375,80.623024,61.8642235
3315,3724,0.059481099999999995,0.03136775,2226.989625,80.623024,61.8642235
3316,3725,0.05981415000000001,0.03225375,2252.09375,80.623024,61.8642235
3317,3726,0.0588085,0.0323029,2277.197875,80.623024,61.8642235
3318,3727,0.059148400000000004,0.03299825,2302.302125,80.623024,61.8642235
3319,3728,0.059904700000000005,0.0335316,2327.40625,80.623024,61.8642235
3320,3729,0.0595923,0.03314805,2352.510375,80.623024,61.8642235
3321,3730,0.0587871,0.032915849999999997,2377.614625,80.623024,61.8642235
3322,3731,0.0580991,0.03202985,2402.71875,80.623024,61.8642235
3323,3732,0.0602193,0.0337542,2427.822875,80.623024,61.8642235
3324,3733,0.059410000000000004,0.0336293,2452.927125,80.623024,61.8642235
3325,3734,0.058777750000000004,0.033652,2478.03125,80.623024,61.8642235
3326,3735,0.05897605,0.033925649999999995,2503.135375,80.623024,61.8642235
3327,3736,0.058917849999999994,0.03399505,2528.239625,80.623024,61.8642235
3328,3737,0.058858350000000004,0.0339683,2553.34375,80.623024,61.8642235
3329,3738,0.05697675,0.03286915,2578.447875,80.623024,61.8642235
3330,3739,0.11642315,0.010556699999999999,1398.552065,93.88750075,38.8894758
3331,3740,0.120003,0.017876749999999997,1423.65625,93.88750075,38.8894758
3332,3741,0.106104,0.02094525,1448.7604350000001,93.88750075,38.8894758
3333,3742,0.1039265,0.0265571,1473.864565,93.88750075,38.8894758
3334,3743,0.102993,0.029064,1498.96875,93.88750075,38.8894758
3335,3744,0.1056656,0.0349458,1524.0729350000001,93.88750075,38.8894758
3336,3745,0.1171295,0.0405079,1549.177065,93.88750075,38.8894758
3337,3746,0.124123,0.04695415,1574.28125,93.88750075,38.8894758
3338,3747,0.1099828,0.0110278,1599.3854350000001,93.88750075,38.8894758
3339,3748,0.1136935,0.017061649999999998,1624.489565,93.88750075,38.8894758
3340,3749,0.10057649999999999,0.0191415,1649.59375,93.88750075,38.8894758
3341,3750,0.0949102,0.0227387,1674.6979350000001,93.88750075,38.8894758
3342,3751,0.0930355,0.02427365,1699.802065,93.88750075,38.8894758
3343,3752,0.0891208,0.026618000000000003,1724.90625,93.88750075,38.8894758
3344,3753,0.08944205000000001,0.0291863,1750.0104350000001,93.88750075,38.8894758
3345,3754,0.08822105,0.03145015,1775.114565,93.88750075,38.8894758
3346,3755,0.09191765,0.03568815,1800.21875,93.88750075,38.8894758
3347,3756,0.10128725,0.04058375,1825.3229350000001,93.88750075,38.8894758
3348,3757,0.1085015,0.04570385,1850.427065,93.88750075,38.8894758
3349,3758,0.09021869999999999,0.016274999999999998,1875.53125,93.88750075,38.8894758
3350,3759,0.09434175,0.0207198,1900.6354350000001,93.88750075,38.8894758
3351,3760,0.08364415,0.0217129,1925.739565,93.88750075,38.8894758
3352,3761,0.07847704999999999,0.024182049999999997,1950.84375,93.88750075,38.8894758
3353,3762,0.07600525,0.025112250000000003,1975.9479350000001,93.88750075,38.8894758
3354,3763,0.07240080000000002,0.026752900000000003,2001.052065,93.88750075,38.8894758
3355,3764,0.07178029999999999,0.028583300000000002,2026.15625,93.88750075,38.8894758
3356,3765,0.07067580000000001,0.030316749999999996,2051.260435,93.88750075,38.8894758
3357,3766,0.07289414999999999,0.0333923,2076.364625,93.88750075,38.8894758
3358,3767,0.0792249,0.0373505,2101.46875,93.88750075,38.8894758
3359,3768,0.08468384999999999,0.040778400000000006,2126.572875,93.88750075,38.8894758
3360,3769,0.06973120000000001,0.0221575,2151.677125,93.88750075,38.8894758
3361,3770,0.0734261,0.02496275,2176.78125,93.88750075,38.8894758
3362,3771,0.06529515,0.024819,2201.885375,93.88750075,38.8894758
3363,3772,0.06135955,0.026272949999999996,2226.989625,93.88750075,38.8894758
3364,3773,0.058580549999999995,0.026577450000000002,2252.09375,93.88750075,38.8894758
3365,3774,0.056776450000000006,0.027918449999999997,2277.197875,93.88750075,38.8894758
3366,3775,0.0563072,0.02908425,2302.302125,93.88750075,38.8894758
3367,3776,0.0572042,0.030877150000000003,2327.40625,93.88750075,38.8894758
3368,3777,0.06148605,0.0339644,2352.510375,93.88750075,38.8894758
3369,3778,0.0641243,0.0355132,2377.614625,93.88750075,38.8894758
3370,3779,0.056167100000000005,0.027609449999999997,2402.71875,93.88750075,38.8894758
3371,3780,0.0580727,0.02890875,2427.822875,93.88750075,38.8894758
3372,3781,0.052679449999999996,0.02780515,2452.927125,93.88750075,38.8894758
3373,3782,0.050674,0.0282748,2478.03125,93.88750075,38.8894758
3374,3783,0.05002365,0.028518750000000002,2503.135375,93.88750075,38.8894758
3375,3784,0.05077765,0.02923775,2528.239625,93.88750075,38.8894758
3376,3785,0.054520149999999996,0.0312249,2553.34375,93.88750075,38.8894758
3377,3786,0.05467595,0.0313292,2578.447875,93.88750075,38.8894758
3378,3787,0.1481745,-0.007757605,1398.552065,100.75370025000001,13.2644758
3379,3788,0.1404485,0.00162683,1423.65625,100.75370025000001,13.2644758
3380,3789,0.134922,0.014637599999999999,1448.7604350000001,100.75370025000001,13.2644758
3381,3790,0.128716,0.0189591,1473.864565,100.75370025000001,13.2644758
3382,3791,0.126585,0.02506605,1498.96875,100.75370025000001,13.2644758
3383,3792,0.124248,0.03002965,1524.0729350000001,100.75370025000001,13.2644758
3384,3793,0.1300815,0.04359525,1549.177065,100.75370025000001,13.2644758
3385,3794,0.1344555,0.05322505,1574.28125,100.75370025000001,13.2644758
3386,3795,0.138549,-0.00591904,1599.3854350000001,100.75370025000001,13.2644758
3387,3796,0.13078499999999998,0.001311465,1624.489565,100.75370025000001,13.2644758
3388,3797,0.1234735,0.012097,1649.59375,100.75370025000001,13.2644758
3389,3798,0.116436,0.014678600000000002,1674.6979350000001,100.75370025000001,13.2644758
3390,3799,0.1119955,0.0179705,1699.802065,100.75370025000001,13.2644758
3391,3800,0.1078575,0.021084599999999995,1724.90625,100.75370025000001,13.2644758
3392,3801,0.1039485,0.0238171,1750.0104350000001,100.75370025000001,13.2644758
3393,3802,0.1019545,0.02795005,1775.114565,100.75370025000001,13.2644758
3394,3803,0.1002305,0.03131955,1800.21875,100.75370025000001,13.2644758
3395,3804,0.1071809,0.0426839,1825.3229350000001,100.75370025000001,13.2644758
3396,3805,0.110846,0.049735600000000005,1850.427065,100.75370025000001,13.2644758
3397,3806,0.112486,0.0016402650000000001,1875.53125,100.75370025000001,13.2644758
3398,3807,0.1050046,0.006754305,1900.6354350000001,100.75370025000001,13.2644758
3399,3808,0.09806994999999999,0.01447315,1925.739565,100.75370025000001,13.2644758
3400,3809,0.09086325,0.01615175,1950.84375,100.75370025000001,13.2644758
3401,3810,0.08597545,0.018350199999999997,1975.9479350000001,100.75370025000001,13.2644758
3402,3811,0.08144214999999999,0.020616449999999995,2001.052065,100.75370025000001,13.2644758
3403,3812,0.07708424999999999,0.0224706,2026.15625,100.75370025000001,13.2644758
3404,3813,0.0746976,0.025507000000000002,2051.260435,100.75370025000001,13.2644758
3405,3814,0.07243015,0.028022700000000005,2076.364625,100.75370025000001,13.2644758
3406,3815,0.07771975,0.03609275,2101.46875,100.75370025000001,13.2644758
3407,3816,0.08047484999999999,0.0411379,2126.572875,100.75370025000001,13.2644758
3408,3817,0.08315685,0.009983430000000001,2151.677125,100.75370025000001,13.2644758
3409,3818,0.07561525,0.01284475,2176.78125,100.75370025000001,13.2644758
3410,3819,0.06918914999999999,0.01727555,2201.885375,100.75370025000001,13.2644758
3411,3820,0.0618293,0.018120449999999996,2226.989625,100.75370025000001,13.2644758
3412,3821,0.05733245,0.01941245,2252.09375,100.75370025000001,13.2644758
3413,3822,0.052747999999999996,0.020860049999999998,2277.197875,100.75370025000001,13.2644758
3414,3823,0.050093,0.022531000000000002,2302.302125,100.75370025000001,13.2644758
3415,3824,0.04829875,0.02433155,2327.40625,100.75370025000001,13.2644758
3416,3825,0.05229485,0.028856350000000003,2352.510375,100.75370025000001,13.2644758
3417,3826,0.055801500000000004,0.032067200000000004,2377.614625,100.75370025000001,13.2644758
3418,3827,0.05726315,0.017620449999999996,2402.71875,100.75370025000001,13.2644758
3419,3828,0.049373600000000004,0.0181238,2427.822875,100.75370025000001,13.2644758
3420,3829,0.043594900000000006,0.01957075,2452.927125,100.75370025000001,13.2644758
3421,3830,0.03808575,0.01958725,2478.03125,100.75370025000001,13.2644758
3422,3831,0.03622735,0.0202109,2503.135375,100.75370025000001,13.2644758
3423,3832,0.036742949999999996,0.0211379,2528.239625,100.75370025000001,13.2644758
3424,3833,0.0407994,0.02247585,2553.34375,100.75370025000001,13.2644758
3425,3834,0.0470009,0.0239385,2578.447875,100.75370025000001,13.2644758
3426,3947,0.254499,-0.044719800000000004,1373.5,-95.0419769,-36.5625
3427,3948,0.2906545,-0.0485528,1373.5,-100.01399229999998,-12.1875
3428,3949,0.2571365,-0.03946525,1348.5,-95.0419769,-36.5625
3429,3950,0.27298849999999997,-0.05299709999999999,1348.5,-100.01399229999998,-12.1875
3430,3951,0.2448055,-0.0328181,1323.5,-95.0419769,-36.5625
3431,3952,0.30648200000000003,-0.0344674,1323.5,-100.01399229999998,-12.1875
3432,3953,0.268215,-0.03608425,1298.5,-95.0419769,-36.5625
3433,3954,0.29824799999999996,-0.04911425,1298.5,-100.01399229999998,-12.1875
3434,3955,0.2714605,-0.05047934999999999,1273.5,-95.0419769,-36.5625
3435,3956,0.29506200000000005,-0.059539550000000004,1273.5,-100.01399229999998,-12.1875
3436,3957,0.2660755,-0.05800305,1248.5,-95.0419769,-36.5625
3437,3958,0.2846555,-0.0715182,1248.5,-100.01399229999998,-12.1875
3438,3959,0.24917849999999997,-0.06341959999999999,1223.5,-95.0419769,-36.5625
3439,3960,0.2697815,-0.07194255,1223.5,-100.01399229999998,-12.1875
3440,3961,0.03530505,-0.01972845,184.34285749999998,13.2644758,100.75370025000001
3441,3962,0.03604739999999999,-0.02001075,209.028572,13.2644758,100.75370025000001
3442,3963,0.039327150000000005,-0.0201163,233.71428650000001,13.2644758,100.75370025000001
3443,3964,0.0430923,-0.0196163,258.40000150000003,13.2644758,100.75370025000001
3444,3965,0.032878649999999995,-0.01862315,283.0857085,13.2644758,100.75370025000001
3445,3966,0.034259300000000006,-0.0184426,307.771423,13.2644758,100.75370025000001
3446,3967,0.03891905,-0.0186705,332.457138,13.2644758,100.75370025000001
3447,3968,0.045832200000000003,-0.01842705,357.142853,13.2644758,100.75370025000001
3448,3969,0.05342965,-0.0185574,381.82856749999996,13.2644758,100.75370025000001
3449,3970,0.06195965,-0.0184072,406.514282,13.2644758,100.75370025000001
3450,3971,0.0717762,-0.01854995,431.199997,13.2644758,100.75370025000001
3451,3972,0.07933175,-0.018416349999999998,455.88571199999996,13.2644758,100.75370025000001
3452,3973,0.09196789999999999,-0.018462899999999997,480.5714264999999,13.2644758,100.75370025000001
3453,3974,0.10262635,-0.0189124,505.25712599999997,13.2644758,100.75370025000001
3454,3975,0.1020402,-0.0177977,529.942841,13.2644758,100.75370025000001
3455,3976,0.0680993,-0.0175863,554.628571,13.2644758,100.75370025000001
3456,3977,0.0822321,-0.017058699999999996,579.314301,13.2644758,100.75370025000001
3457,3978,0.09110965,-0.017276349999999996,604.0,13.2644758,100.75370025000001
3458,3979,0.10038635,-0.0173078,628.685699,13.2644758,100.75370025000001
3459,3980,0.11100099999999999,-0.01699615,653.371429,13.2644758,100.75370025000001
3460,3981,0.12194150000000001,-0.01723345,678.057159,13.2644758,100.75370025000001
3461,3982,0.1295705,-0.016861750000000002,702.7428585,13.2644758,100.75370025000001
3462,3983,0.14432849999999997,-0.017033799999999998,727.4285580000001,13.2644758,100.75370025000001
3463,3984,0.1562485,-0.017566699999999998,752.114288,13.2644758,100.75370025000001
3464,3985,0.15099,-0.0160934,776.8000180000001,13.2644758,100.75370025000001
3465,3986,0.1169355,-0.01647945,801.4857175,13.2644758,100.75370025000001
3466,3987,0.1371655,-0.015463400000000002,826.171417,13.2644758,100.75370025000001
3467,3988,0.14588800000000002,-0.0158589,850.8571469999999,13.2644758,100.75370025000001
3468,3989,0.15427649999999998,-0.01595035,875.5428769999999,13.2644758,100.75370025000001
3469,3990,0.1660835,-0.0154718,900.2285764999999,13.2644758,100.75370025000001
3470,3991,0.1773045,-0.0158253,924.914276,13.2644758,100.75370025000001
3471,3992,0.18434699999999998,-0.015293149999999998,949.6000060000001,13.2644758,100.75370025000001
3472,3993,0.200602,-0.0155217,974.285736,13.2644758,100.75370025000001
3473,3994,0.213353,-0.016199850000000002,998.9714355,13.2644758,100.75370025000001
3474,3995,0.202901,-0.01433655,1023.6571349999999,13.2644758,100.75370025000001
3475,3996,0.05444365,-0.0311332,184.34285749999998,38.8894758,93.88750075
3476,3997,0.055435200000000004,-0.0316277,209.028572,38.8894758,93.88750075
3477,3998,0.05723375,-0.03167679999999999,233.71428650000001,38.8894758,93.88750075
3478,3999,0.058493550000000005,-0.031036349999999997,258.40000150000003,38.8894758,93.88750075
3479,4000,0.049308199999999996,-0.028267100000000003,283.0857085,38.8894758,93.88750075
3480,4001,0.0515464,-0.02905375,307.771423,38.8894758,93.88750075
3481,4002,0.05324425000000001,-0.028688699999999998,332.457138,38.8894758,93.88750075
3482,4003,0.057376050000000005,-0.02887885,357.142853,38.8894758,93.88750075
3483,4004,0.06206369999999999,-0.0289122,381.82856749999996,38.8894758,93.88750075
3484,4005,0.06797890000000001,-0.029028650000000003,406.514282,38.8894758,93.88750075
3485,4006,0.07485,-0.029102350000000003,431.199997,38.8894758,93.88750075
3486,4007,0.0805279,-0.028996249999999998,455.88571199999996,38.8894758,93.88750075
3487,4008,0.089452,-0.02902165,480.5714264999999,38.8894758,93.88750075
3488,4009,0.09813854999999999,-0.029473350000000002,505.25712599999997,38.8894758,93.88750075
3489,4010,0.09659395,-0.02817025,529.942841,38.8894758,93.88750075
3490,4011,0.07190445000000001,-0.02764375,554.628571,38.8894758,93.88750075
3491,4012,0.08224275,-0.02766845,579.314301,38.8894758,93.88750075
3492,4013,0.0889116,-0.02776605,604.0,38.8894758,93.88750075
3493,4014,0.0955348,-0.0276739,628.685699,38.8894758,93.88750075
3494,4015,0.104458,-0.0279528,653.371429,38.8894758,93.88750075
3495,4016,0.11328650000000001,-0.0280086,678.057159,38.8894758,93.88750075
3496,4017,0.12014450000000002,-0.02812965,702.7428585,38.8894758,93.88750075
3497,4018,0.1318475,-0.028035749999999998,727.4285580000001,38.8894758,93.88750075
3498,4019,0.142322,-0.028730000000000002,752.114288,38.8894758,93.88750075
3499,4020,0.137232,-0.0270844,776.8000180000001,38.8894758,93.88750075
3500,4021,0.1099125,-0.02647345,801.4857175,38.8894758,93.88750075
3501,4022,0.126182,-0.026101100000000002,826.171417,38.8894758,93.88750075
3502,4023,0.1333555,-0.0263937,850.8571469999999,38.8894758,93.88750075
3503,4024,0.1397505,-0.026248099999999996,875.5428769999999,38.8894758,93.88750075
3504,4025,0.150142,-0.02662345,900.2285764999999,38.8894758,93.88750075
3505,4026,0.159732,-0.026678849999999997,924.914276,38.8894758,93.88750075
3506,4027,0.1664985,-0.0269057,949.6000060000001,38.8894758,93.88750075
3507,4028,0.18012050000000002,-0.026743,974.285736,38.8894758,93.88750075
3508,4029,0.191604,-0.02759375,998.9714355,38.8894758,93.88750075
3509,4030,0.18222,-0.025678899999999998,1023.6571349999999,38.8894758,93.88750075
3510,4031,0.07047044999999999,-0.04056655000000001,184.34285749999998,61.86422350000001,80.623024
3511,4032,0.0714081,-0.04102159999999999,209.028572,61.86422350000001,80.623024
3512,4033,0.07236590000000001,-0.04111245,233.71428650000001,61.86422350000001,80.623024
3513,4034,0.07241210000000001,-0.0404193,258.40000150000003,61.86422350000001,80.623024
3514,4035,0.06422159999999999,-0.0369203,283.0857085,61.86422350000001,80.623024
3515,4036,0.06481029999999999,-0.03682545,307.771423,61.86422350000001,80.623024
3516,4037,0.0666455,-0.037177699999999994,332.457138,61.86422350000001,80.623024
3517,4038,0.0692264,-0.037316,357.142853,61.86422350000001,80.623024
3518,4039,0.07224005,-0.037566600000000006,381.82856749999996,61.86422350000001,80.623024
3519,4040,0.07541004999999999,-0.037527950000000004,406.514282,61.86422350000001,80.623024
3520,4041,0.07939394999999999,-0.0376432,431.199997,61.86422350000001,80.623024
3521,4042,0.0822292,-0.0374317,455.88571199999996,61.86422350000001,80.623024
3522,4043,0.08759049999999999,-0.037266350000000004,480.5714264999999,61.86422350000001,80.623024
3523,4044,0.09291875,-0.0377912,505.25712599999997,61.86422350000001,80.623024
3524,4045,0.09041645000000001,-0.03611445,529.942841,61.86422350000001,80.623024
3525,4046,0.07812465,-0.036647900000000004,554.628571,61.86422350000001,80.623024
3526,4047,0.08456115,-0.03595815,579.314301,61.86422350000001,80.623024
3527,4048,0.0889509,-0.0364341,604.0,61.86422350000001,80.623024
3528,4049,0.0947249,-0.0368656,628.685699,61.86422350000001,80.623024
3529,4050,0.10065015,-0.0367724,653.371429,61.86422350000001,80.623024
3530,4051,0.1071545,-0.03725855,678.057159,61.86422350000001,80.623024
3531,4052,0.110955,-0.0368754,702.7428585,61.86422350000001,80.623024
3532,4053,0.119,-0.036955199999999994,727.4285580000001,61.86422350000001,80.623024
3533,4054,0.1264055,-0.0377154,752.114288,61.86422350000001,80.623024
3534,4055,0.12045349999999999,-0.0353429,776.8000180000001,61.86422350000001,80.623024
3535,4056,0.1045045,-0.0359353,801.4857175,61.86422350000001,80.623024
3536,4057,0.1166105,-0.03452355,826.171417,61.86422350000001,80.623024
3537,4058,0.1217085,-0.035267999999999994,850.8571469999999,61.86422350000001,80.623024
3538,4059,0.128243,-0.03581115,875.5428769999999,61.86422350000001,80.623024
3539,4060,0.135965,-0.0355797,900.2285764999999,61.86422350000001,80.623024
3540,4061,0.143609,-0.03630695,924.914276,61.86422350000001,80.623024
3541,4062,0.1475325,-0.03580205,949.6000060000001,61.86422350000001,80.623024
3542,4063,0.1572945,-0.0360183,974.285736,61.86422350000001,80.623024
3543,4064,0.1661155,-0.03701,998.9714355,61.86422350000001,80.623024
3544,4065,0.1560905,-0.0339792,1023.6571349999999,61.86422350000001,80.623024
3545,4066,0.0808934,-0.046673099999999995,184.34285749999998,80.623024,61.8642235
3546,4067,0.0829376,-0.0477929,209.028572,80.623024,61.8642235
3547,4068,0.0835924,-0.047929,233.71428650000001,80.623024,61.8642235
3548,4069,0.08166335,-0.04658215,258.40000150000003,80.623024,61.8642235
3549,4070,0.07447424999999999,-0.042752849999999995,283.0857085,80.623024,61.8642235
3550,4071,0.0770922,-0.0439255,307.771423,80.623024,61.8642235
3551,4072,0.0778407,-0.0436907,332.457138,80.623024,61.8642235
3552,4073,0.07875825,-0.04346535,357.142853,80.623024,61.8642235
3553,4074,0.0794598,-0.043165499999999996,381.82856749999996,80.623024,61.8642235
3554,4075,0.08046829999999999,-0.04300165,406.514282,80.623024,61.8642235
3555,4076,0.0817078,-0.0429077,431.199997,80.623024,61.8642235
3556,4077,0.0826096,-0.04280565,455.88571199999996,80.623024,61.8642235
3557,4078,0.08494425,-0.0428509,480.5714264999999,80.623024,61.8642235
3558,4079,0.0881107,-0.043424500000000005,505.25712599999997,80.623024,61.8642235
3559,4080,0.08476429999999999,-0.0415151,529.942841,80.623024,61.8642235
3560,4081,0.08411475000000002,-0.043391900000000004,554.628571,80.623024,61.8642235
3561,4082,0.08899215,-0.0437159,579.314301,80.623024,61.8642235
3562,4083,0.09325440000000002,-0.04406005,604.0,80.623024,61.8642235
3563,4084,0.0951717,-0.0434112,628.685699,80.623024,61.8642235
3564,4085,0.09825855,-0.043286450000000004,653.371429,80.623024,61.8642235
3565,4086,0.10044365,-0.042852100000000004,678.057159,80.623024,61.8642235
3566,4087,0.101672,-0.042631050000000004,702.7428585,80.623024,61.8642235
3567,4088,0.1053695,-0.042446399999999995,727.4285580000001,80.623024,61.8642235
3568,4089,0.1092288,-0.0432738,752.114288,80.623024,61.8642235
3569,4090,0.1036023,-0.040998950000000006,776.8000180000001,80.623024,61.8642235
3570,4091,0.10092815,-0.0432714,801.4857175,80.623024,61.8642235
3571,4092,0.10973350000000001,-0.043110800000000005,826.171417,80.623024,61.8642235
3572,4093,0.1161865,-0.04371835,850.8571469999999,80.623024,61.8642235
3573,4094,0.1189905,-0.0428848,875.5428769999999,80.623024,61.8642235
3574,4095,0.12383450000000001,-0.04272395,900.2285764999999,80.623024,61.8642235
3575,4096,0.126916,-0.042065000000000005,924.914276,80.623024,61.8642235
3576,4097,0.128189,-0.0418233,949.6000060000001,80.623024,61.8642235
3577,4098,0.133193,-0.04142565,974.285736,80.623024,61.8642235
3578,4099,0.13727150000000002,-0.0425432,998.9714355,80.623024,61.8642235
3579,4100,0.1288525,-0.03990495,1023.6571349999999,80.623024,61.8642235
3580,4101,0.08714585,-0.05028515,184.34285749999998,93.88750075,38.8894758
3581,4102,0.08798455000000001,-0.05070875,209.028572,93.88750075,38.8894758
3582,4103,0.087927,-0.0506803,233.71428650000001,93.88750075,38.8894758
3583,4104,0.087052,-0.050139050000000004,258.40000150000003,93.88750075,38.8894758
3584,4105,0.08701085,-0.04981695,283.0857085,93.88750075,38.8894758
3585,4106,0.08714150000000001,-0.04916695,307.771423,93.88750075,38.8894758
3586,4107,0.08469215,-0.047393000000000005,332.457138,93.88750075,38.8894758
3587,4108,0.08268195,-0.04606335,357.142853,93.88750075,38.8894758
3588,4109,0.08195535,-0.0455484,381.82856749999996,93.88750075,38.8894758
3589,4110,0.080626,-0.044748949999999996,406.514282,93.88750075,38.8894758
3590,4111,0.08099695,-0.044953,431.199997,93.88750075,38.8894758
3591,4112,0.0804465,-0.04464835,455.88571199999996,93.88750075,38.8894758
3592,4113,0.0815571,-0.04518755,480.5714264999999,93.88750075,38.8894758
3593,4114,0.0842263,-0.046514200000000006,505.25712599999997,93.88750075,38.8894758
3594,4115,0.0827976,-0.045662,529.942841,93.88750075,38.8894758
3595,4116,0.09471770000000002,-0.05154765,554.628571,93.88750075,38.8894758
3596,4117,0.0972501,-0.05042845,579.314301,93.88750075,38.8894758
3597,4118,0.0953,-0.0483665,604.0,93.88750075,38.8894758
3598,4119,0.09395105000000001,-0.04704505,628.685699,93.88750075,38.8894758
3599,4120,0.09274080000000001,-0.04582015,653.371429,93.88750075,38.8894758
3600,4121,0.0926524,-0.0454629,678.057159,93.88750075,38.8894758
3601,4122,0.09122859999999999,-0.044653,702.7428585,93.88750075,38.8894758
3602,4123,0.09208549999999999,-0.044670150000000006,727.4285580000001,93.88750075,38.8894758
3603,4124,0.09424275,-0.04560305,752.114288,93.88750075,38.8894758
3604,4125,0.08984385,-0.0440641,776.8000180000001,93.88750075,38.8894758
3605,4126,0.105826,-0.05281915,801.4857175,93.88750075,38.8894758
3606,4127,0.111783,-0.0511224,826.171417,93.88750075,38.8894758
3607,4128,0.110954,-0.0489585,850.8571469999999,93.88750075,38.8894758
3608,4129,0.1100865,-0.0474092,875.5428769999999,93.88750075,38.8894758
3609,4130,0.109466,-0.04573905,900.2285764999999,93.88750075,38.8894758
3610,4131,0.10994500000000001,-0.04530025,924.914276,93.88750075,38.8894758
3611,4132,0.10804849999999999,-0.0439859,949.6000060000001,93.88750075,38.8894758
3612,4133,0.109516,-0.04380415,974.285736,93.88750075,38.8894758
3613,4134,0.1117255,-0.044477600000000006,998.9714355,93.88750075,38.8894758
3614,4135,0.1037305,-0.0424627,1023.6571349999999,93.88750075,38.8894758
3615,4136,0.08252435,-0.04712295,184.34285749999998,100.75370025000001,13.2644758
3616,4137,0.0830612,-0.04780345,209.028572,100.75370025000001,13.2644758
3617,4138,0.08337225,-0.04811415,233.71428650000001,100.75370025000001,13.2644758
3618,4139,0.082073,-0.04726715,258.40000150000003,100.75370025000001,13.2644758
3619,4140,0.0882141,-0.0488789,283.0857085,100.75370025000001,13.2644758
3620,4141,0.0888204,-0.04955745,307.771423,100.75370025000001,13.2644758
3621,4142,0.08358499999999999,-0.046935950000000004,332.457138,100.75370025000001,13.2644758
3622,4143,0.08163110000000001,-0.0460618,357.142853,100.75370025000001,13.2644758
3623,4144,0.07896900000000001,-0.04467385,381.82856749999996,100.75370025000001,13.2644758
3624,4145,0.07797245,-0.0443191,406.514282,100.75370025000001,13.2644758
3625,4146,0.07675325,-0.04379084999999999,431.199997,100.75370025000001,13.2644758
3626,4147,0.07696075,-0.044077899999999996,455.88571199999996,100.75370025000001,13.2644758
3627,4148,0.076736,-0.044072799999999995,480.5714264999999,100.75370025000001,13.2644758
3628,4149,0.08062069999999999,-0.0464146,505.25712599999997,100.75370025000001,13.2644758
3629,4150,0.07830775,-0.04516815,529.942841,100.75370025000001,13.2644758
3630,4151,0.09619174999999999,-0.0507634,554.628571,100.75370025000001,13.2644758
3631,4152,0.09585160000000001,-0.0510272,579.314301,100.75370025000001,13.2644758
3632,4153,0.09119215,-0.048787750000000005,604.0,100.75370025000001,13.2644758
3633,4154,0.088065,-0.0473721,628.685699,100.75370025000001,13.2644758
3634,4155,0.0853702,-0.0457609,653.371429,100.75370025000001,13.2644758
3635,4156,0.0832398,-0.04497975,678.057159,100.75370025000001,13.2644758
3636,4157,0.08188984999999999,-0.0444033,702.7428585,100.75370025000001,13.2644758
3637,4158,0.0801722,-0.04373945,727.4285580000001,100.75370025000001,13.2644758
3638,4159,0.08370575,-0.04613294999999999,752.114288,100.75370025000001,13.2644758
3639,4160,0.08030915,-0.0443968,776.8000180000001,100.75370025000001,13.2644758
3640,4161,0.105974,-0.0520642,801.4857175,100.75370025000001,13.2644758
3641,4162,0.105505,-0.052248750000000004,826.171417,100.75370025000001,13.2644758
3642,4163,0.101429,-0.0503046,850.8571469999999,100.75370025000001,13.2644758
3643,4164,0.0978035,-0.04847815,875.5428769999999,100.75370025000001,13.2644758
3644,4165,0.09505905,-0.04640395,900.2285764999999,100.75370025000001,13.2644758
3645,4166,0.0925309,-0.04532945,924.914276,100.75370025000001,13.2644758
3646,4167,0.0905621,-0.04430175,949.6000060000001,100.75370025000001,13.2644758
3647,4168,0.088295,-0.04317235,974.285736,100.75370025000001,13.2644758
3648,4169,0.09245545,-0.046063400000000004,998.9714355,100.75370025000001,13.2644758
3649,4170,0.08909139999999999,-0.04410565,1023.6571349999999,100.75370025000001,13.2644758
3650,4171,0.07580305000000001,-0.0412672,1023.6571349999999,100.0139923,-12.1875
3651,4172,0.07368085,-0.04220525,1023.6571349999999,95.04197690000001,-36.5625
3652,4173,0.0835095,-0.046009049999999996,998.9714355,100.0139923,-12.1875
3653,4174,0.0798541,-0.04539445,998.9714355,95.04197690000001,-36.5625
3654,4175,0.0877539,-0.0481817,974.285736,100.0139923,-12.1875
3655,4176,0.08456555000000002,-0.04796015,974.285736,95.04197690000001,-36.5625
3656,4177,0.09389495,-0.05174005,949.6000060000001,100.0139923,-12.1875
3657,4178,0.08935245,-0.0505929,949.6000060000001,95.04197690000001,-36.5625
3658,4179,0.09948485,-0.0546426,924.914276,100.0139923,-12.1875
3659,4180,0.0943223,-0.05342955,924.914276,95.04197690000001,-36.5625
3660,4181,0.10435549999999999,-0.057455900000000004,900.2285764999999,100.0139923,-12.1875
3661,4182,0.09995185000000001,-0.056503899999999996,900.2285764999999,95.04197690000001,-36.5625
3662,4183,0.11059649999999999,-0.06074505,875.5428769999999,100.0139923,-12.1875
3663,4184,0.10362949999999999,-0.058497549999999995,875.5428769999999,95.04197690000001,-36.5625
3664,4185,0.1139905,-0.06250665,850.8571469999999,100.0139923,-12.1875
3665,4186,0.10804350000000001,-0.06080755,850.8571469999999,95.04197690000001,-36.5625
3666,4187,0.1195935,-0.06512989999999999,826.171417,100.0139923,-12.1875
3667,4188,0.106193,-0.05965315,826.171417,95.04197690000001,-36.5625
3668,4189,0.11659399999999999,-0.0621819,801.4857175,100.0139923,-12.1875
3669,4190,0.10853149999999999,-0.06187445,801.4857175,95.04197690000001,-36.5625
3670,4191,0.0772515,-0.044314549999999994,776.8000180000001,100.0139923,-12.1875
3671,4192,0.0776135,-0.04479810000000001,776.8000180000001,95.04197690000001,-36.5625
3672,4193,0.0855177,-0.049055699999999994,752.1142880000001,100.0139923,-12.1875
3673,4194,0.08170725000000001,-0.0471096,752.1142880000001,95.04197690000001,-36.5625
3674,4195,0.0886893,-0.050685,727.4285580000001,100.0139923,-12.1875
3675,4196,0.086364,-0.0497403,727.4285580000001,95.04197690000001,-36.5625
3676,4197,0.0937704,-0.053519649999999995,702.7428585,100.0139923,-12.1875
3677,4198,0.08990945,-0.051699,702.7428585,95.04197690000001,-36.5625
3678,4199,0.09763184999999999,-0.055472499999999994,678.057159,100.0139923,-12.1875
3679,4200,0.0937152,-0.053846250000000005,678.057159,95.04197690000001,-36.5625
3680,4201,0.10114999999999999,-0.057408650000000006,653.371429,100.0139923,-12.1875
3681,4202,0.09760715,-0.05595080000000001,653.371429,95.04197690000001,-36.5625
3682,4203,0.10568950000000002,-0.05970515,628.685699,100.0139923,-12.1875
3683,4204,0.09989365,-0.057164549999999995,628.685699,95.04197690000001,-36.5625
3684,4205,0.10761749999999999,-0.0605918,604.0,100.0139923,-12.1875
3685,4206,0.102821,-0.058648950000000005,604.0,95.04197690000001,-36.5625
3686,4207,0.111701,-0.062383900000000006,579.314301,100.0139923,-12.1875
3687,4208,0.10042465,-0.057159749999999995,579.314301,95.04197690000001,-36.5625
3688,4209,0.1074405,-0.059007699999999996,554.6285710000001,100.0139923,-12.1875
3689,4210,0.10207949999999999,-0.05855315,554.6285710000001,95.04197690000001,-36.5625
3690,4211,0.08357465,-0.048053349999999995,529.942841,100.0139923,-12.1875
3691,4212,0.0835156,-0.0481366,529.942841,95.04197690000001,-36.5625
3692,4213,0.0915223,-0.0527821,505.25712599999997,100.0139923,-12.1875
3693,4214,0.08574525000000001,-0.0494279,505.25712599999997,95.04197690000001,-36.5625
3694,4215,0.0931084,-0.053754750000000004,480.5714264999999,100.0139923,-12.1875
3695,4216,0.0904283,-0.052181099999999994,480.5714264999999,95.04197690000001,-36.5625
3696,4217,0.0965785,-0.0557429,455.88571199999996,100.0139923,-12.1875
3697,4218,0.0921341,-0.0531875,455.88571199999996,95.04197690000001,-36.5625
3698,4219,0.09800249999999999,-0.056501850000000006,431.199997,100.0139923,-12.1875
3699,4220,0.0950268,-0.054848499999999994,431.199997,95.04197690000001,-36.5625
3700,4221,0.1003185,-0.0577459,406.514282,100.0139923,-12.1875
3701,4222,0.0961526,-0.055466499999999995,406.514282,95.04197690000001,-36.5625
3702,4223,0.1013955,-0.05824989999999999,381.82856749999996,100.0139923,-12.1875
3703,4224,0.09824574999999999,-0.05661045,381.82856749999996,95.04197690000001,-36.5625
3704,4225,0.103631,-0.05935875,357.142853,100.0139923,-12.1875
3705,4226,0.09846105,-0.05664019999999999,357.142853,95.04197690000001,-36.5625
3706,4227,0.103734,-0.05919290000000001,332.457138,100.0139923,-12.1875
3707,4228,0.09940795000000001,-0.0570508,332.457138,95.04197690000001,-36.5625
3708,4229,0.105401,-0.0597369,307.771423,100.0139923,-12.1875
3709,4230,0.09613775,-0.055028749999999994,307.771423,95.04197690000001,-36.5625
3710,4231,0.09982585,-0.05583400000000001,283.0857085,100.0139923,-12.1875
3711,4232,0.09614995,-0.05525895,283.0857085,95.04197690000001,-36.5625
3712,4233,0.086085,-0.0494917,258.40000150000003,100.0139923,-12.1875
3713,4234,0.0821753,-0.0474252,258.40000150000003,95.04197690000001,-36.5625
3714,4235,0.0905551,-0.05226195,233.71428650000001,100.0139923,-12.1875
3715,4236,0.08258870000000001,-0.0476731,233.71428650000001,95.04197690000001,-36.5625
3716,4237,0.0910667,-0.052460200000000005,209.028572,100.0139923,-12.1875
3717,4238,0.08254305,-0.04763025,209.028572,95.04197690000001,-36.5625
3718,4239,0.08718085,-0.0498556,184.34285749999998,100.0139923,-12.1875
3719,4240,0.0828045,-0.04776935,184.34285749999998,95.04197690000001,-36.5625
3720,4241,0.153476,0.00701681,1373.5,-2.435684085,-490.559204
3721,4242,0.196596,-0.046958650000000005,1373.5,-7.307050825,-466.67762749999997
3722,4243,0.163304,-0.04436385,1373.5,-12.178417465,-442.796051
3723,4244,0.15005049999999998,-0.048108750000000006,1373.5,-17.049784199999998,-418.9144745
3724,4245,0.1310915,-0.04802025,1373.5,-21.921150675,-395.032898
3725,4246,0.1150795,-0.0482821,1373.5,-26.792517174999997,-371.1513215
3726,4247,0.10121350000000001,-0.04828249999999999,1373.5,-31.663883674999997,-347.26974500000006
3727,4248,0.0911736,-0.048301,1373.5,-36.535251599999995,-323.388153
3728,4249,0.0860822,-0.048301449999999996,1373.5,-41.406618099999996,-299.5065765
3729,4250,0.0867299,-0.04830279999999999,1373.5,-46.277984599999996,-275.625
3730,4251,0.09308685000000001,-0.048302849999999994,1373.5,-51.14935299999999,-251.743416
3731,4252,0.10423299999999999,-0.04830285,1373.5,-56.0207195,-227.86183949999997
3732,4253,0.11891850000000001,-0.048302849999999994,1373.5,-60.89208599999999,-203.98026249999998
3733,4254,0.13598549999999998,-0.04830165,1373.5,-65.7634525,-180.09868600000001
3734,4255,0.15468700000000002,-0.04830205,1373.5,-70.634819,-156.2171095
3735,4256,0.174408,-0.04828475,1373.5,-75.50618739999999,-132.335529
3736,4257,0.195019,-0.0482962,1373.5,-80.377553925,-108.45394885000002
3737,4258,0.21568350000000003,-0.048047,1373.5,-85.24891852500001,-84.5723686
3738,4259,0.2380995,-0.04829800000000001,1373.5,-90.120285,-60.69078825
3739,4260,0.24263249999999997,-0.0419604,1348.5,-2.43568468,-490.559204
3740,4261,0.18444850000000002,-0.054231100000000004,1348.5,-7.307051179999999,-466.67762749999997
3741,4262,0.1644645,-0.04002235,1348.5,-12.1784177,-442.796051
3742,4263,0.1419205,-0.040533,1348.5,-17.049784199999998,-418.9144745
3743,4264,0.12230950000000002,-0.039543800000000004,1348.5,-21.9211502,-395.032898
3744,4265,0.10422725,-0.03955485,1348.5,-26.7925167,-371.1513215
3745,4266,0.0885602,-0.03948535,1348.5,-31.6638832,-347.26974500000006
3746,4267,0.0768332,-0.0394844,1348.5,-36.535251599999995,-323.388153
3747,4268,0.0706521,-0.0394795,1348.5,-41.406618099999996,-299.5065765
3748,4269,0.0714116,-0.039479299999999995,1348.5,-46.277984599999996,-275.625
3749,4270,0.0790081,-0.03947895,1348.5,-51.14935299999999,-251.743416
3750,4271,0.09193565,-0.03947895,1348.5,-56.0207195,-227.86183949999997
3751,4272,0.10839235,-0.03947925,1348.5,-60.89208599999999,-203.98026249999998
3752,4273,0.12693649999999998,-0.0394792,1348.5,-65.7634525,-180.09868600000001
3753,4274,0.146849,-0.03948375,1348.5,-70.634819,-156.2171095
3754,4275,0.167555,-0.039481550000000004,1348.5,-75.50618739999999,-132.335529
3755,4276,0.1888705,-0.0395471,1348.5,-80.377552,-108.45394885000002
3756,4277,0.21071499999999999,-0.039492349999999996,1348.5,-85.2489166,-84.5723686
3757,4278,0.23224899999999998,-0.04044135,1348.5,-90.120285,-60.69078825
3758,4279,0.159199,0.018693599999999998,1323.5,-2.43568468,-490.559204
3759,4280,0.173009,-0.000903833,1323.5,-7.307051179999999,-466.67762749999997
3760,4281,0.178139,-0.0276751,1323.5,-12.1784177,-442.796051
3761,4282,0.16727799999999998,-0.0361344,1323.5,-17.049784199999998,-418.9144745
3762,4283,0.160854,-0.04989715,1323.5,-21.9211502,-395.032898
3763,4284,0.14272100000000001,-0.0522976,1323.5,-26.7925167,-371.1513215
3764,4285,0.1324575,-0.05770945,1323.5,-31.6638832,-347.26974500000006
3765,4286,0.11859,-0.058531150000000004,1323.5,-36.535251599999995,-323.388153
3766,4287,0.1116685,-0.060747350000000006,1323.5,-41.406618099999996,-299.5065765
3767,4288,0.10649799999999998,-0.060908649999999995,1323.5,-46.277984599999996,-275.625
3768,4289,0.108331,-0.06171615,1323.5,-51.14935299999999,-251.743416
3769,4290,0.11385999999999999,-0.061303,1323.5,-56.0207195,-227.86183949999997
3770,4291,0.12498349999999998,-0.061283,1323.5,-60.89208599999999,-203.98026249999998
3771,4292,0.1380655,-0.0600053,1323.5,-65.7634525,-180.09868600000001
3772,4293,0.15486149999999999,-0.0591974,1323.5,-70.634819,-156.2171095
3773,4294,0.1709165,-0.0563043,1323.5,-75.50618739999999,-132.335529
3774,4295,0.1903165,-0.054418,1323.5,-80.377552,-108.45394885000002
3775,4296,0.20630500000000002,-0.04842525,1323.5,-85.2489166,-84.5723686
3776,4297,0.2284285,-0.0451284,1323.5,-90.120285,-60.69078825
3777,4298,0.192945,0.00894785,1298.5,-2.43568468,-490.559204
3778,4299,0.2104615,-0.01816835,1298.5,-7.307051179999999,-466.67762749999997
3779,4300,0.199237,-0.02828945,1298.5,-12.1784177,-442.796051
3780,4301,0.1887555,-0.04375025,1298.5,-17.049784199999998,-418.9144745
3781,4302,0.160485,-0.0448327,1298.5,-21.9211502,-395.032898
3782,4303,0.144988,-0.04921135,1298.5,-26.7925167,-371.1513215
3783,4304,0.123369,-0.049724700000000004,1298.5,-31.6638832,-347.26974500000006
3784,4305,0.10988299999999998,-0.05159925,1298.5,-36.535251599999995,-323.388153
3785,4306,0.0971583,-0.05183365000000001,1298.5,-41.406618099999996,-299.5065765
3786,4307,0.09206909999999999,-0.05263635,1298.5,-46.277984599999996,-275.625
3787,4308,0.0924003,-0.05256975,1298.5,-51.14935299999999,-251.743416
3788,4309,0.1000737,-0.052782899999999994,1298.5,-56.0207195,-227.86183949999997
3789,4310,0.1122515,-0.052313899999999997,1298.5,-60.89208599999999,-203.98026249999998
3790,4311,0.129047,-0.05207065000000001,1298.5,-65.7634525,-180.09868600000001
3791,4312,0.146872,-0.050863000000000005,1298.5,-70.634819,-156.2171095
3792,4313,0.168241,-0.0500032,1298.5,-75.50618739999999,-132.335529
3793,4314,0.18752249999999998,-0.047341949999999994,1298.5,-80.377552,-108.45394885000002
3794,4315,0.2123795,-0.04545945,1298.5,-85.2489166,-84.5723686
3795,4316,0.231507,-0.040586,1298.5,-90.120285,-60.69078825
3796,4317,0.2254045,0.0045810964999999995,1273.5,-2.43568468,-490.559204
3797,4318,0.233482,-0.02376275,1273.5,-7.307051179999999,-466.67762749999997
3798,4319,0.226151,-0.0473379,1273.5,-12.1784177,-442.796051
3799,4320,0.186178,-0.04577635,1273.5,-17.049784199999998,-418.9144745
3800,4321,0.16712300000000002,-0.04597995,1273.5,-21.9211502,-395.032898
3801,4322,0.13905849999999997,-0.04503195,1273.5,-26.7925167,-371.1513215
3802,4323,0.119601,-0.04456485,1273.5,-31.6638832,-347.26974500000006
3803,4324,0.09943485,-0.0443922,1273.5,-36.535251599999995,-323.388153
3804,4325,0.08567159999999999,-0.04429555,1273.5,-41.406618099999996,-299.5065765
3805,4326,0.07753745000000001,-0.04427879999999999,1273.5,-46.277984599999996,-275.625
3806,4327,0.07803294999999999,-0.044269750000000004,1273.5,-51.14935299999999,-251.743416
3807,4328,0.08671885,-0.044267249999999994,1273.5,-56.0207195,-227.86183949999997
3808,4329,0.101553,-0.0442627,1273.5,-60.89208599999999,-203.98026249999998
3809,4330,0.1199355,-0.0442347,1273.5,-65.7634525,-180.09868600000001
3810,4331,0.141598,-0.044185999999999996,1273.5,-70.634819,-156.2171095
3811,4332,0.163257,-0.04404915,1273.5,-75.50618739999999,-132.335529
3812,4333,0.1887135,-0.043781799999999996,1273.5,-80.377552,-108.45394885000002
3813,4334,0.21133200000000002,-0.04384705,1273.5,-85.2489166,-84.5723686
3814,4335,0.2422935,-0.0434011,1273.5,-90.120285,-60.69078825
3815,4336,0.2861985,0.008046805,1248.5,-2.43568468,-490.559204
3816,4337,0.27128700000000006,-0.05200175,1248.5,-7.307051179999999,-466.67762749999997
3817,4338,0.21048450000000002,-0.052826700000000004,1248.5,-12.1784177,-442.796051
3818,4339,0.1884915,-0.04644785,1248.5,-17.049784199999998,-418.9144745
3819,4340,0.1580665,-0.04455275,1248.5,-21.9211502,-395.032898
3820,4341,0.13503099999999998,-0.0400799,1248.5,-26.7925167,-371.1513215
3821,4342,0.110955,-0.039152900000000004,1248.5,-31.6638832,-347.26974500000006
3822,4343,0.09035784999999999,-0.0370644,1248.5,-36.535251599999995,-323.388153
3823,4344,0.07357495,-0.0367575,1248.5,-41.406618099999996,-299.5065765
3824,4345,0.06335299999999999,-0.03591445,1248.5,-46.277984599999996,-275.625
3825,4346,0.0640782,-0.0359734,1248.5,-51.14935299999999,-251.743416
3826,4347,0.07395850000000001,-0.03575495,1248.5,-56.0207195,-227.86183949999997
3827,4348,0.09114415000000001,-0.0362123,1248.5,-60.89208599999999,-203.98026249999998
3828,4349,0.111801,-0.036435100000000005,1248.5,-65.7634525,-180.09868600000001
3829,4350,0.13441150000000002,-0.0375802,1248.5,-70.634819,-156.2171095
3830,4351,0.15911150000000002,-0.038323499999999996,1248.5,-75.50618739999999,-132.335529
3831,4352,0.183527,-0.0409592,1248.5,-80.377552,-108.45394885000002
3832,4353,0.21109650000000002,-0.0426121,1248.5,-85.2489166,-84.5723686
3833,4354,0.2375485,-0.0501774,1248.5,-90.120285,-60.69078825
3834,4355,0.370124,-0.0419843,1223.5,-2.4356840876332786,-490.559204
3835,4356,0.244205,-0.061001,1223.5,-7.307050825,-466.67762749999997
3836,4357,0.203584,-0.04419175,1223.5,-12.178417465,-442.796051
3837,4358,0.17514049999999998,-0.0453312,1223.5,-17.049784199999998,-418.9144745
3838,4359,0.14878799999999998,-0.03648685,1223.5,-21.921150675,-395.032898
3839,4360,0.125356,-0.03534215,1223.5,-26.792517175,-371.1513215
3840,4361,0.10117380000000001,-0.030683750000000003,1223.5,-31.663883675,-347.26974500000006
3841,4362,0.079971,-0.0299264,1223.5,-36.535251599999995,-323.388153
3842,4363,0.060407050000000004,-0.027753049999999998,1223.5,-41.406618099999996,-299.5065765
3843,4364,0.0494782,-0.0275773,1223.5,-46.277984599999996,-275.625
3844,4365,0.049096100000000004,-0.02676095,1223.5,-51.14935299999999,-251.743416
3845,4366,0.06206475,-0.0271674,1223.5,-56.0207195,-227.86183949999997
3846,4367,0.0807905,-0.0271811,1223.5,-60.89208599999999,-203.98026249999998
3847,4368,0.10327615,-0.028470950000000002,1223.5,-65.7634525,-180.09868600000001
3848,4369,0.126703,-0.029297049999999998,1223.5,-70.634819,-156.2171095
3849,4370,0.1513065,-0.032412250000000004,1223.5,-75.50618739999999,-132.335529
3850,4371,0.1760825,-0.0346535,1223.5,-80.377553925,-108.45394885000002
3851,4372,0.2015835,-0.042093950000000005,1223.5,-85.248918525,-84.5723686
3852,4373,0.22553,-0.048099,1223.5,-90.120285,-60.69078825
3853,4374,0.0691998,-0.0399006,1023.6571349999999,90.120285,-60.690788250000004
3854,4375,0.06998389999999999,-0.039349999999999996,1023.6571349999999,85.248918525,-84.5723686
3855,4376,0.0722016,-0.03830665,1023.6571349999999,80.377553925,-108.45394885000002
3856,4377,0.0778731,-0.038076650000000004,1023.6571349999999,75.50618739999999,-132.335529
3857,4378,0.08516744999999999,-0.0378269,1023.6571349999999,70.634819,-156.2171095
3858,4379,0.09449774999999999,-0.03821885,1023.6571349999999,65.7634525,-180.098686
3859,4380,0.1047255,-0.03863125,1023.6571349999999,60.892086,-203.9802625
3860,4381,0.1161545,-0.03977765,1023.6571349999999,56.0207195,-227.86183949999997
3861,4382,0.1278895,-0.040793249999999996,1023.6571349999999,51.14935299999999,-251.74341599999997
3862,4383,0.1405315,-0.042808799999999994,1023.6571349999999,46.277984599999996,-275.625
3863,4384,0.153146,-0.0443489,1023.6571349999999,41.406618099999996,-299.5065765
3864,4385,0.16683399999999998,-0.04743105,1023.6571349999999,36.535251599999995,-323.388153
3865,4386,0.18044149999999998,-0.04927185,1023.6571349999999,31.663883674999997,-347.269745
3866,4387,0.196049,-0.05393439999999999,1023.6571349999999,26.792517174999997,-371.1513215
3867,4388,0.2122345,-0.0555144,1023.6571349999999,21.921150674999996,-395.032898
3868,4389,0.233348,-0.0635588,1023.6571349999999,17.049784199999998,-418.9144745
3869,4390,0.25946349999999996,-0.06352495,1023.6571349999999,12.178417465,-442.796051
3870,4391,0.3001565,-0.08332985,1023.6571349999999,7.307050824999999,-466.67762749999997
3871,4392,0.4118615,-0.0709292,1023.6571349999999,2.435684085,-490.559204
3872,4393,0.07676205,-0.044235,998.9714355,90.120285,-60.690788250000004
3873,4394,0.07613900000000001,-0.04312315,998.9714355,85.2489166,-84.5723686
3874,4395,0.0788057,-0.04254925,998.9714355,80.377552,-108.45394885000002
3875,4396,0.08363390000000001,-0.0420695,998.9714355,75.50618739999999,-132.335529
3876,4397,0.0910034,-0.042077050000000005,998.9714355,70.634819,-156.2171095
3877,4398,0.0999005,-0.04220135,998.9714355,65.7634525,-180.098686
3878,4399,0.110289,-0.0428877,998.9714355,60.892086,-203.9802625
3879,4400,0.12156,-0.043589199999999995,998.9714355,56.0207195,-227.86183949999997
3880,4401,0.13364150000000002,-0.045033899999999995,998.9714355,51.14935299999999,-251.74341599999997
3881,4402,0.1463485,-0.046313,998.9714355,46.277984599999996,-275.625
3882,4403,0.15945150000000002,-0.048634449999999996,998.9714355,41.406618099999996,-299.5065765
3883,4404,0.1735215,-0.050470799999999996,998.9714355,36.535251599999995,-323.388153
3884,4405,0.18756,-0.05385715,998.9714355,31.6638832,-347.269745
3885,4406,0.204296,-0.0560785,998.9714355,26.7925167,-371.1513215
3886,4407,0.2200725,-0.0607775,998.9714355,21.9211502,-395.032898
3887,4408,0.245112,-0.0629002,998.9714355,17.049784199999998,-418.9144745
3888,4409,0.2645085,-0.06801,998.9714355,12.1784177,-442.796051
3889,4410,0.327916,-0.0693005,998.9714355,7.30705118,-466.67762749999997
3890,4411,0.33572650000000004,-0.021245150000000004,998.9714355,2.43568468,-490.559204
3891,4412,0.08255325,-0.0474792,974.285736,90.120285,-60.690788250000004
3892,4413,0.08176995,-0.0464575,974.285736,85.2489166,-84.5723686
3893,4414,0.08410870000000001,-0.04595395,974.285736,80.377552,-108.45394885000002
3894,4415,0.08881140000000001,-0.0455391,974.285736,75.50618739999999,-132.335529
3895,4416,0.09586665,-0.045463649999999994,974.285736,70.634819,-156.2171095
3896,4417,0.104673,-0.0456937,974.285736,65.7634525,-180.098686
3897,4418,0.114988,-0.046100100000000005,974.285736,60.892086,-203.9802625
3898,4419,0.126206,-0.04697445,974.285736,56.0207195,-227.86183949999997
3899,4420,0.1385545,-0.047899750000000005,974.285736,51.14935299999999,-251.74341599999997
3900,4421,0.1511025,-0.04944225,974.285736,46.277984599999996,-275.625
3901,4422,0.16509849999999998,-0.05096615,974.285736,41.406618099999996,-299.5065765
3902,4423,0.178379,-0.0531641,974.285736,36.535251599999995,-323.388153
3903,4424,0.19470400000000002,-0.05532205,974.285736,31.6638832,-347.269745
3904,4425,0.20831349999999998,-0.057765699999999996,974.285736,26.7925167,-371.1513215
3905,4426,0.22984550000000004,-0.0602103,974.285736,21.9211502,-395.032898
3906,4427,0.243085,-0.060211749999999994,974.285736,17.049784199999998,-418.9144745
3907,4428,0.278928,-0.06120539999999999,974.285736,12.1784177,-442.796051
3908,4429,0.2891435,-0.037201700000000004,974.285736,7.30705118,-466.67762749999997
3909,4430,0.2942655,-0.016965800000000003,974.285736,2.43568468,-490.559204
3910,4431,0.08681415,-0.049881499999999995,949.6000060000001,90.120285,-60.690788250000004
3911,4432,0.0869417,-0.04952775,949.6000060000001,85.2489166,-84.5723686
3912,4433,0.0885089,-0.048705799999999994,949.6000060000001,80.377552,-108.45394885000002
3913,4434,0.0933833,-0.0485482,949.6000060000001,75.50618739999999,-132.335529
3914,4435,0.09999025,-0.0483469,949.6000060000001,70.634819,-156.2171095
3915,4436,0.10886699999999999,-0.048530500000000004,949.6000060000001,65.7634525,-180.098686
3916,4437,0.11877299999999999,-0.04888905,949.6000060000001,60.892086,-203.9802625
3917,4438,0.1302685,-0.0494444,949.6000060000001,56.0207195,-227.86183949999997
3918,4439,0.14201550000000002,-0.050279449999999996,949.6000060000001,51.14935299999999,-251.74341599999997
3919,4440,0.1554235,-0.0513049,949.6000060000001,46.277984599999996,-275.625
3920,4441,0.16812749999999999,-0.052508,949.6000060000001,41.406618099999996,-299.5065765
3921,4442,0.18355700000000003,-0.05412379999999999,949.6000060000001,36.535251599999995,-323.388153
3922,4443,0.1964565,-0.0551874,949.6000060000001,31.6638832,-347.269745
3923,4444,0.2150065,-0.0572678,949.6000060000001,26.7925167,-371.1513215
3924,4445,0.2267185,-0.05596285000000001,949.6000060000001,21.9211502,-395.032898
3925,4446,0.2501175,-0.0568144,949.6000060000001,17.049784199999998,-418.9144745
3926,4447,0.25841749999999997,-0.0437317,949.6000060000001,12.1784177,-442.796051
3927,4448,0.2694125,-0.033312800000000004,949.6000060000001,7.30705118,-466.67762749999997
3928,4449,0.27242,-0.010676099999999999,949.6000060000001,2.43568468,-490.559204
3929,4450,0.09184385,-0.052728950000000004,924.914276,90.120285,-60.690788250000004
3930,4451,0.0906048,-0.051705600000000004,924.914276,85.2489166,-84.5723686
3931,4452,0.09303955,-0.05149835,924.914276,80.377552,-108.45394885000002
3932,4453,0.09696755,-0.05093055,924.914276,75.50618739999999,-132.335529
3933,4454,0.10402549999999999,-0.051001649999999996,924.914276,70.634819,-156.2171095
3934,4455,0.112145,-0.0509512,924.914276,65.7634525,-180.098686
3935,4456,0.1223355,-0.0512112,924.914276,60.892086,-203.9802625
3936,4457,0.132893,-0.051468200000000006,924.914276,56.0207195,-227.86183949999997
3937,4458,0.145253,-0.0519761,924.914276,51.14935299999999,-251.74341599999997
3938,4459,0.15714450000000002,-0.05237459999999999,924.914276,46.277984599999996,-275.625
3939,4460,0.1713675,-0.05324274999999999,924.914276,41.406618099999996,-299.5065765
3940,4461,0.1837855,-0.05336294999999999,924.914276,36.535251599999995,-323.388153
3941,4462,0.2000305,-0.054599850000000005,924.914276,31.6638832,-347.269745
3942,4463,0.21181299999999997,-0.052983600000000006,924.914276,26.7925167,-371.1513215
3943,4464,0.229779,-0.053797250000000005,924.914276,21.9211502,-395.032898
3944,4465,0.23830050000000003,-0.045964649999999996,924.914276,17.049784199999998,-418.9144745
3945,4466,0.24954349999999997,-0.041187100000000004,924.914276,12.1784177,-442.796051
3946,4467,0.252013,-0.02468435,924.914276,7.30705118,-466.67762749999997
3947,4468,0.2501575,-0.009312145,924.914276,2.43568468,-490.559204
3948,4469,0.09557304999999999,-0.05486194999999999,900.2285764999999,90.120285,-60.690788250000004
3949,4470,0.0951233,-0.054357,900.2285764999999,85.2489166,-84.5723686
3950,4471,0.09618559999999998,-0.0534885,900.2285764999999,80.377552,-108.45394885000002
3951,4472,0.1011725,-0.05354605,900.2285764999999,75.50618739999999,-132.335529
3952,4473,0.107189,-0.05325125,900.2285764999999,70.634819,-156.2171095
3953,4474,0.115733,-0.053349350000000004,900.2285764999999,65.7634525,-180.098686
3954,4475,0.12472350000000001,-0.05321115,900.2285764999999,60.892086,-203.9802625
3955,4476,0.135652,-0.053315150000000006,900.2285764999999,56.0207195,-227.86183949999997
3956,4477,0.14634,-0.053111149999999996,900.2285764999999,51.14935299999999,-251.74341599999997
3957,4478,0.1590805,-0.053273600000000004,900.2285764999999,46.277984599999996,-275.625
3958,4479,0.1706495,-0.0526804,900.2285764999999,41.406618099999996,-299.5065765
3959,4480,0.184909,-0.052912200000000006,900.2285764999999,36.535251599999995,-323.388153
3960,4481,0.196545,-0.051049899999999995,900.2285764999999,31.6638832,-347.269745
3961,4482,0.21153699999999998,-0.051028000000000004,900.2285764999999,26.7925167,-371.1513215
3962,4483,0.2217,-0.045672,900.2285764999999,21.9211502,-395.032898
3963,4484,0.23302449999999997,-0.0437546,900.2285764999999,17.049784199999998,-418.9144745
3964,4485,0.2370325,-0.0326158,900.2285764999999,12.1784177,-442.796051
3965,4486,0.236687,-0.023771050000000002,900.2285764999999,7.30705118,-466.67762749999997
3966,4487,0.23321350000000002,-0.0069952899999999995,900.2285764999999,2.43568468,-490.559204
3967,4488,0.10007905,-0.057424750000000004,875.5428769999999,90.120285,-60.690788250000004
3968,4489,0.09782615,-0.056001800000000004,875.5428769999999,85.2489166,-84.5723686
3969,4490,0.100653,-0.056122950000000005,875.5428769999999,80.377552,-108.45394885000002
3970,4491,0.104588,-0.055802500000000005,875.5428769999999,75.50618739999999,-132.335529
3971,4492,0.1113025,-0.0558848,875.5428769999999,70.634819,-156.2171095
3972,4493,0.118531,-0.05558435,875.5428769999999,65.7634525,-180.098686
3973,4494,0.12776,-0.05546725,875.5428769999999,60.892086,-203.9802625
3974,4495,0.13691350000000002,-0.05489630000000001,875.5428769999999,56.0207195,-227.86183949999997
3975,4496,0.147931,-0.054556349999999997,875.5428769999999,51.14935299999999,-251.74341599999997
3976,4497,0.15817900000000001,-0.053454049999999996,875.5428769999999,46.277984599999996,-275.625
3977,4498,0.1704925,-0.05283855,875.5428769999999,41.406618099999996,-299.5065765
3978,4499,0.1811995,-0.05066455,875.5428769999999,36.535251599999995,-323.388153
3979,4500,0.1939765,-0.049541,875.5428769999999,31.6638832,-347.269745
3980,4501,0.20439400000000002,-0.04514405,875.5428769999999,26.7925167,-371.1513215
3981,4502,0.2150165,-0.0428607,875.5428769999999,21.9211502,-395.032898
3982,4503,0.223446,-0.034849000000000005,875.5428769999999,17.049784199999998,-418.9144745
3983,4504,0.226633,-0.03113435,875.5428769999999,12.1784177,-442.796051
3984,4505,0.2238455,-0.018850350000000002,875.5428769999999,7.30705118,-466.67762749999997
3985,4506,0.21538800000000002,-0.006397875,875.5428769999999,2.43568468,-490.559204
3986,4507,0.10137399999999999,-0.05820675,850.8571469999999,90.120285,-60.690788250000004
3987,4508,0.10234649999999999,-0.0586374,850.8571469999999,85.2489166,-84.5723686
3988,4509,0.104621,-0.0585609,850.8571469999999,80.377552,-108.45394885000002
3989,4510,0.1095205,-0.058759099999999995,850.8571469999999,75.50618739999999,-132.335529
3990,4511,0.115103,-0.058566599999999996,850.8571469999999,70.634819,-156.2171095
3991,4512,0.122529,-0.0584162,850.8571469999999,65.7634525,-180.098686
3992,4513,0.130029,-0.05774275,850.8571469999999,60.892086,-203.9802625
3993,4514,0.13918999999999998,-0.057165099999999996,850.8571469999999,56.0207195,-227.86183949999997
3994,4515,0.14781650000000002,-0.0557998,850.8571469999999,51.14935299999999,-251.74341599999997
3995,4516,0.158132,-0.0546737,850.8571469999999,46.277984599999996,-275.625
3996,4517,0.1672875,-0.05224955,850.8571469999999,41.406618099999996,-299.5065765
3997,4518,0.177991,-0.0503044,850.8571469999999,36.535251599999995,-323.388153
3998,4519,0.187165,-0.0461566,850.8571469999999,31.6638832,-347.269745
3999,4520,0.19654349999999998,-0.042844049999999995,850.8571469999999,26.7925167,-371.1513215
4000,4521,0.20525249999999998,-0.036166500000000004,850.8571469999999,21.9211502,-395.032898
4001,4522,0.209872,-0.031031950000000003,850.8571469999999,17.049784199999998,-418.9144745
4002,4523,0.21724500000000002,-0.02145385,850.8571469999999,12.1784177,-442.796051
4003,4524,0.212169,-0.0180296,850.8571469999999,7.30705118,-466.67762749999997
4004,4525,0.198532,-0.00389946,850.8571469999999,2.43568468,-490.559204
4005,4526,0.105376,-0.06073565,826.171417,90.120285,-60.690788250000004
4006,4527,0.10714100000000001,-0.061469750000000004,826.171417,85.2489166,-84.5723686
4007,4528,0.110426,-0.061894899999999996,826.171417,80.377552,-108.45394885000002
4008,4529,0.11480399999999999,-0.06209245000000001,826.171417,75.50618739999999,-132.335529
4009,4530,0.1204945,-0.06205505,826.171417,70.634819,-156.2171095
4010,4531,0.126493,-0.061538699999999995,826.171417,65.7634525,-180.098686
4011,4532,0.1338345,-0.0609672,826.171417,60.892086,-203.9802625
4012,4533,0.14083250000000003,-0.05961535,826.171417,56.0207195,-227.86183949999997
4013,4534,0.14919749999999998,-0.05834965,826.171417,51.14935299999999,-251.74341599999997
4014,4535,0.15659499999999998,-0.0558853,826.171417,46.277984599999996,-275.625
4015,4536,0.165255,-0.05361434999999999,826.171417,41.406618099999996,-299.5065765
4016,4537,0.1724885,-0.049566799999999994,826.171417,36.535251599999995,-323.388153
4017,4538,0.18022349999999998,-0.0457165,826.171417,31.6638832,-347.269745
4018,4539,0.186831,-0.03951895,826.171417,26.7925167,-371.1513215
4019,4540,0.191465,-0.0332147,826.171417,21.9211502,-395.032898
4020,4541,0.19742749999999998,-0.0245832,826.171417,17.049784199999998,-418.9144745
4021,4542,0.19561699999999999,-0.015197249999999999,826.171417,12.1784177,-442.796051
4022,4543,0.20457549999999997,-0.004184284999999999,826.171417,7.30705118,-466.67762749999997
4023,4544,0.18584399999999998,-0.002618685,826.171417,2.43568468,-490.559204
4024,4545,0.1120025,-0.0646353,801.4857175,90.120285,-60.690788250000004
4025,4546,0.113732,-0.06522789999999999,801.4857175,85.2489166,-84.5723686
4026,4547,0.11751049999999999,-0.06607099999999999,801.4857175,80.377552,-108.45394885000002
4027,4548,0.12164499999999999,-0.0662239,801.4857175,75.50618739999999,-132.335529
4028,4549,0.1264795,-0.06606240000000001,801.4857175,70.634819,-156.2171095
4029,4550,0.132205,-0.065669,801.4857175,65.7634525,-180.098686
4030,4551,0.13784000000000002,-0.0645812,801.4857175,60.892086,-203.9802625
4031,4552,0.1445075,-0.06348034999999999,801.4857175,56.0207195,-227.86183949999997
4032,4553,0.15037999999999999,-0.06126495,801.4857175,51.14935299999999,-251.74341599999997
4033,4554,0.1572405,-0.0591498,801.4857175,46.277984599999996,-275.625
4034,4555,0.16264099999999998,-0.05540004999999999,801.4857175,41.406618099999996,-299.5065765
4035,4556,0.1686705,-0.05171235,801.4857175,36.535251599999995,-323.388153
4036,4557,0.1728285,-0.04589685,801.4857175,31.6638832,-347.269745
4037,4558,0.1765265,-0.0396976,801.4857175,26.7925167,-371.1513215
4038,4559,0.1787665,-0.0314051,801.4857175,21.9211502,-395.032898
4039,4560,0.178263,-0.0211685,801.4857175,17.049784199999998,-418.9144745
4040,4561,0.17864649999999999,-0.01044315,801.4857175,12.1784177,-442.796051
4041,4562,0.172672,0.0074782600000000005,801.4857175,7.30705118,-466.67762749999997
4042,4563,0.183799,0.01898495,801.4857175,2.43568468,-490.559204
4043,4564,0.0754735,-0.0434397,776.8000180000001,90.120285,-60.690788250000004
4044,4565,0.0757442,-0.043015450000000004,776.8000180000001,85.2489166,-84.5723686
4045,4566,0.07638684999999999,-0.04230365,776.8000180000001,80.377552,-108.45394885000002
4046,4567,0.07880329999999999,-0.0421093,776.8000180000001,75.50618739999999,-132.335529
4047,4568,0.0820239,-0.0418844,776.8000180000001,70.634819,-156.2171095
4048,4569,0.08665845,-0.042137400000000005,776.8000180000001,65.7634525,-180.098686
4049,4570,0.0918296,-0.04231265,776.8000180000001,60.892086,-203.9802625
4050,4571,0.0981743,-0.0430868,776.8000180000001,56.0207195,-227.86183949999997
4051,4572,0.1046125,-0.043577149999999995,776.8000180000001,51.14935299999999,-251.74341599999997
4052,4573,0.1121825,-0.04491055,776.8000180000001,46.277984599999996,-275.625
4053,4574,0.1194405,-0.04558005,776.8000180000001,41.406618099999996,-299.5065765
4054,4575,0.128127,-0.0475409,776.8000180000001,36.535251599999995,-323.388153
4055,4576,0.1362315,-0.048113500000000003,776.8000180000001,31.6638832,-347.269745
4056,4577,0.146787,-0.0509723,776.8000180000001,26.7925167,-371.1513215
4057,4578,0.157004,-0.0509123,776.8000180000001,21.9211502,-395.032898
4058,4579,0.1726,-0.05591485,776.8000180000001,17.049784199999998,-418.9144745
4059,4580,0.19110549999999998,-0.054106,776.8000180000001,12.1784177,-442.796051
4060,4581,0.22393799999999997,-0.06762375000000001,776.8000180000001,7.30705118,-466.67762749999997
4061,4582,0.312627,-0.055406449999999996,776.8000180000001,2.43568468,-490.559204
4062,4583,0.0803744,-0.046289250000000004,752.1142880000001,90.120285,-60.690788250000004
4063,4584,0.0798095,-0.04547475,752.1142880000001,85.2489166,-84.5723686
4064,4585,0.0808323,-0.04504655,752.1142880000001,80.377552,-108.45394885000002
4065,4586,0.082875,-0.04468985,752.1142880000001,75.50618739999999,-132.335529
4066,4587,0.0863323,-0.04468515,752.1142880000001,70.634819,-156.2171095
4067,4588,0.09068615,-0.0447182,752.1142880000001,65.7634525,-180.098686
4068,4589,0.09617210000000001,-0.0451992,752.1142880000001,60.892086,-203.9802625
4069,4590,0.1022145,-0.045574199999999995,752.1142880000001,56.0207195,-227.86183949999997
4070,4591,0.1091405,-0.04657455,752.1142880000001,51.14935299999999,-251.74341599999997
4071,4592,0.1163705,-0.0472427,752.1142880000001,46.277984599999996,-275.625
4072,4593,0.12432750000000001,-0.048806199999999994,752.1142880000001,41.406618099999996,-299.5065765
4073,4594,0.1326685,-0.04967105,752.1142880000001,36.535251599999995,-323.388153
4074,4595,0.141636,-0.051858,752.1142880000001,31.6638832,-347.269745
4075,4596,0.152023,-0.05268165,752.1142880000001,26.7925167,-371.1513215
4076,4597,0.1627835,-0.055552750000000005,752.1142880000001,21.9211502,-395.032898
4077,4598,0.179705,-0.055885599999999994,752.1142880000001,17.049784199999998,-418.9144745
4078,4599,0.194129,-0.058583350000000006,752.1142880000001,12.1784177,-442.796051
4079,4600,0.242143,-0.05782395,752.1142880000001,7.30705118,-466.67762749999997
4080,4601,0.2490395,-0.01749035,752.1142880000001,2.43568468,-490.559204
4081,4602,0.08433985,-0.048589999999999994,727.4285580000001,90.120285,-60.690788250000004
4082,4603,0.08365045,-0.0477591,727.4285580000001,85.2489166,-84.5723686
4083,4604,0.0844712,-0.047286049999999996,727.4285580000001,80.377552,-108.45394885000002
4084,4605,0.08648259999999999,-0.046965599999999996,727.4285580000001,75.50618739999999,-132.335529
4085,4606,0.08983644999999998,-0.0468787,727.4285580000001,70.634819,-156.2171095
4086,4607,0.0942542,-0.04705255,727.4285580000001,65.7634525,-180.098686
4087,4608,0.0996625,-0.047296,727.4285580000001,60.892086,-203.9802625
4088,4609,0.105827,-0.04793865,727.4285580000001,56.0207195,-227.86183949999997
4089,4610,0.11276349999999999,-0.048497200000000004,727.4285580000001,51.14935299999999,-251.74341599999997
4090,4611,0.120088,-0.0496041,727.4285580000001,46.277984599999996,-275.625
4091,4612,0.1283485,-0.0504806,727.4285580000001,41.406618099999996,-299.5065765
4092,4613,0.13641799999999998,-0.051995,727.4285580000001,36.535251599999995,-323.388153
4093,4614,0.146446,-0.0531083,727.4285580000001,31.6638832,-347.269745
4094,4615,0.1549335,-0.05459844999999999,727.4285580000001,26.7925167,-371.1513215
4095,4616,0.1688555,-0.05552459999999999,727.4285580000001,21.9211502,-395.032898
4096,4617,0.1771525,-0.05467535,727.4285580000001,17.049784199999998,-418.9144745
4097,4618,0.2025135,-0.0539051,727.4285580000001,12.1784177,-442.796051
4098,4619,0.2082685,-0.03332685,727.4285580000001,7.30705118,-466.67762749999997
4099,4620,0.212397,-0.014131600000000001,727.4285580000001,2.43568468,-490.559204
4100,4621,0.0878552,-0.050624550000000004,702.7428585,90.120285,-60.690788250000004
4101,4622,0.08723115000000001,-0.04989095,702.7428585,85.2489166,-84.5723686
4102,4623,0.0875324,-0.04917205,702.7428585,80.377552,-108.45394885000002
4103,4624,0.08971124999999999,-0.04895365,702.7428585,75.50618739999999,-132.335529
4104,4625,0.09280660000000002,-0.0487992,702.7428585,70.634819,-156.2171095
4105,4626,0.0973456,-0.04891115,702.7428585,65.7634525,-180.098686
4106,4627,0.10254850000000001,-0.0492021,702.7428585,60.892086,-203.9802625
4107,4628,0.10888149999999999,-0.04958445,702.7428585,56.0207195,-227.86183949999997
4108,4629,0.115474,-0.0502345,702.7428585,51.14935299999999,-251.74341599999997
4109,4630,0.12329699999999999,-0.050916699999999995,702.7428585,46.277984599999996,-275.625
4110,4631,0.13070500000000002,-0.051824350000000005,702.7428585,41.406618099999996,-299.5065765
4111,4632,0.140099,-0.05281544999999999,702.7428585,36.535251599999995,-323.388153
4112,4633,0.14765,-0.0535197,702.7428585,31.6638832,-347.269745
4113,4634,0.1592775,-0.0545233,702.7428585,26.7925167,-371.1513215
4114,4635,0.165629,-0.05305979999999999,702.7428585,21.9211502,-395.032898
4115,4636,0.18074,-0.05243275,702.7428585,17.049784199999998,-418.9144745
4116,4637,0.183748,-0.040914149999999996,702.7428585,12.1784177,-442.796051
4117,4638,0.1899345,-0.030190750000000002,702.7428585,7.30705118,-466.67762749999997
4118,4639,0.19139299999999998,-0.009243725000000001,702.7428585,2.43568468,-490.559204
4119,4640,0.09137905,-0.052644350000000006,678.057159,90.120285,-60.690788250000004
4120,4641,0.08992040000000001,-0.051511850000000005,678.057159,85.2489166,-84.5723686
4121,4642,0.0906775,-0.05107075,678.057159,80.377552,-108.45394885000002
4122,4643,0.0922362,-0.05056865,678.057159,75.50618739999999,-132.335529
4123,4644,0.09572735,-0.0505604,678.057159,70.634819,-156.2171095
4124,4645,0.099776,-0.0505385,678.057159,65.7634525,-180.098686
4125,4646,0.10524599999999999,-0.0507392,678.057159,60.892086,-203.9802625
4126,4647,0.1109185,-0.050980649999999995,678.057159,56.0207195,-227.86183949999997
4127,4648,0.117974,-0.051379049999999996,678.057159,51.14935299999999,-251.74341599999997
4128,4649,0.1246385,-0.0517457,678.057159,46.277984599999996,-275.625
4129,4650,0.133163,-0.05237649999999999,678.057159,41.406618099999996,-299.5065765
4130,4651,0.14015149999999998,-0.05251965,678.057159,36.535251599999995,-323.388153
4131,4652,0.15016200000000002,-0.053242950000000004,678.057159,31.6638832,-347.269745
4132,4653,0.1562325,-0.05189484999999999,678.057159,26.7925167,-371.1513215
4133,4654,0.16711700000000002,-0.05168009999999999,678.057159,21.9211502,-395.032898
4134,4655,0.16971599999999998,-0.0448364,678.057159,17.049784199999998,-418.9144745
4135,4656,0.17482,-0.03899775,678.057159,12.1784177,-442.796051
4136,4657,0.1732865,-0.02377365,678.057159,7.30705118,-466.67762749999997
4137,4658,0.169859,-0.008170795,678.057159,2.43568468,-490.559204
4138,4659,0.0939529,-0.054132150000000004,653.371429,90.120285,-60.690788250000004
4139,4660,0.09298604999999999,-0.053321650000000005,653.371429,85.2489166,-84.5723686
4140,4661,0.09285325,-0.0524425,653.371429,80.377552,-108.45394885000002
4141,4662,0.09518865000000001,-0.05232995,653.371429,75.50618739999999,-132.335529
4142,4663,0.0980023,-0.05207435,653.371429,70.634819,-156.2171095
4143,4664,0.102451,-0.05213515,653.371429,65.7634525,-180.098686
4144,4665,0.1070565,-0.05206525000000001,653.371429,60.892086,-203.9802625
4145,4666,0.113099,-0.0521954,653.371429,56.0207195,-227.86183949999997
4146,4667,0.11882200000000001,-0.052114499999999994,653.371429,51.14935299999999,-251.74341599999997
4147,4668,0.126243,-0.0523184,653.371429,46.277984599999996,-275.625
4148,4669,0.1325145,-0.0519713,653.371429,41.406618099999996,-299.5065765
4149,4670,0.141119,-0.0521856,653.371429,36.535251599999995,-323.388153
4150,4671,0.1470515,-0.050840250000000003,653.371429,31.6638832,-347.269745
4151,4672,0.15597499999999997,-0.0505526,653.371429,26.7925167,-371.1513215
4152,4673,0.159698,-0.0462241,653.371429,21.9211502,-395.032898
4153,4674,0.16474,-0.0433195,653.371429,17.049784199999998,-418.9144745
4154,4675,0.16283350000000002,-0.03324495,653.371429,12.1784177,-442.796051
4155,4676,0.1581825,-0.023117850000000002,653.371429,7.30705118,-466.67762749999997
4156,4677,0.1529865,-0.006584845000000001,653.371429,2.43568468,-490.559204
4157,4678,0.0969343,-0.055826,628.685699,90.120285,-60.690788250000004
4158,4679,0.09467709999999999,-0.05436540000000001,628.685699,85.2489166,-84.5723686
4159,4680,0.0958842,-0.05421675,628.685699,80.377552,-108.45394885000002
4160,4681,0.0975666,-0.0538574,628.685699,75.50618739999999,-132.335529
4161,4682,0.10096350000000001,-0.0538488,628.685699,70.634819,-156.2171095
4162,4683,0.10450000000000001,-0.0536117,628.685699,65.7634525,-180.098686
4163,4684,0.10941500000000001,-0.05355739999999999,628.685699,60.892086,-203.9802625
4164,4685,0.11406549999999999,-0.05316965,628.685699,56.0207195,-227.86183949999997
4165,4686,0.12022050000000001,-0.053018300000000004,628.685699,51.14935299999999,-251.74341599999997
4166,4687,0.125501,-0.052268499999999996,628.685699,46.277984599999996,-275.625
4167,4688,0.132652,-0.051952,628.685699,41.406618099999996,-299.5065765
4168,4689,0.137968,-0.050407450000000006,628.685699,36.535251599999995,-323.388153
4169,4690,0.145409,-0.0496459,628.685699,31.6638832,-347.269745
4170,4691,0.149664,-0.046325450000000004,628.685699,26.7925167,-371.1513215
4171,4692,0.1548795,-0.0442039,628.685699,21.9211502,-395.032898
4172,4693,0.1557675,-0.037665649999999995,628.685699,17.049784199999998,-418.9144745
4173,4694,0.153231,-0.03238505,628.685699,12.1784177,-442.796051
4174,4695,0.145269,-0.0204253,628.685699,7.30705118,-466.67762749999997
4175,4696,0.134441,-0.00625865,628.685699,2.43568468,-490.559204
4176,4697,0.09732145,-0.0560629,604.0,90.120285,-60.690788250000004
4177,4698,0.09767545,-0.05610685,604.0,85.2489166,-84.5723686
4178,4699,0.0985493,-0.055847999999999995,604.0,80.377552,-108.45394885000002
4179,4700,0.1009935,-0.05586445,604.0,75.50618739999999,-132.335529
4180,4701,0.1036525,-0.055644,604.0,70.634819,-156.2171095
4181,4702,0.10746900000000001,-0.05551415,604.0,65.7634525,-180.098686
4182,4703,0.11108799999999999,-0.054999,604.0,60.892086,-203.9802625
4183,4704,0.11595950000000001,-0.054639999999999994,604.0,56.0207195,-227.86183949999997
4184,4705,0.12012149999999999,-0.053645,604.0,51.14935299999999,-251.74341599999997
4185,4706,0.12578,-0.052950300000000006,604.0,46.277984599999996,-275.625
4186,4707,0.13004100000000002,-0.0511769,604.0,41.406618099999996,-299.5065765
4187,4708,0.1359415,-0.04991435000000001,604.0,36.535251599999995,-323.388153
4188,4709,0.139637,-0.0468122,604.0,31.6638832,-347.269745
4189,4710,0.14427,-0.044454850000000004,604.0,26.7925167,-371.1513215
4190,4711,0.146223,-0.03929265,604.0,21.9211502,-395.032898
4191,4712,0.146181,-0.03501220000000001,604.0,17.049784199999998,-418.9144745
4192,4713,0.143687,-0.0271905,604.0,12.1784177,-442.796051
4193,4714,0.132854,-0.020321600000000002,604.0,7.30705118,-466.67762749999997
4194,4715,0.1169905,-0.005212695,604.0,2.43568468,-490.559204
4195,4716,0.099994,-0.0576944,579.314301,90.120285,-60.690788250000004
4196,4717,0.1008505,-0.057980199999999996,579.314301,85.2489166,-84.5723686
4197,4718,0.1025105,-0.058118050000000004,579.314301,80.377552,-108.45394885000002
4198,4719,0.10464199999999999,-0.0581202,579.314301,75.50618739999999,-132.335529
4199,4720,0.1074895,-0.058012949999999994,579.314301,70.634819,-156.2171095
4200,4721,0.1102905,-0.05755605,579.314301,65.7634525,-180.098686
4201,4722,0.1140165,-0.0571476,579.314301,60.892086,-203.9802625
4202,4723,0.1171745,-0.056111400000000006,579.314301,56.0207195,-227.86183949999997
4203,4724,0.121473,-0.05527,579.314301,51.14935299999999,-251.74341599999997
4204,4725,0.12459,-0.05341415000000001,579.314301,46.277984599999996,-275.625
4205,4726,0.12896999999999997,-0.05189245000000001,579.314301,41.406618099999996,-299.5065765
4206,4727,0.13149450000000001,-0.04881615,579.314301,36.535251599999995,-323.388153
4207,4728,0.1349345,-0.046162850000000005,579.314301,31.6638832,-347.269745
4208,4729,0.136087,-0.04136255,579.314301,26.7925167,-371.1513215
4209,4730,0.1365275,-0.03688765,579.314301,21.9211502,-395.032898
4210,4731,0.1350585,-0.03004515,579.314301,17.049784199999998,-418.9144745
4211,4732,0.128874,-0.0230721,579.314301,12.1784177,-442.796051
4212,4733,0.12221749999999999,-0.0141077,579.314301,7.30705118,-466.67762749999997
4213,4734,0.09960655,-0.0047440550000000005,579.314301,2.43568468,-490.559204
4214,4735,0.10451650000000001,-0.060330049999999996,554.6285710000001,90.120285,-60.690788250000004
4215,4736,0.105347,-0.060546249999999996,554.6285710000001,85.2489166,-84.5723686
4216,4737,0.10732900000000001,-0.06095350000000001,554.6285710000001,80.377552,-108.45394885000002
4217,4738,0.109347,-0.06092109999999999,554.6285710000001,75.50618739999999,-132.335529
4218,4739,0.11160500000000001,-0.06066534999999999,554.6285710000001,70.634819,-156.2171095
4219,4740,0.114414,-0.060326950000000004,554.6285710000001,65.7634525,-180.098686
4220,4741,0.11686250000000001,-0.05944245000000001,554.6285710000001,60.892086,-203.9802625
4221,4742,0.1201155,-0.058670749999999994,554.6285710000001,56.0207195,-227.86183949999997
4222,4743,0.1223775,-0.05696735,554.6285710000001,51.14935299999999,-251.74341599999997
4223,4744,0.125559,-0.055514049999999995,554.6285710000001,46.277984599999996,-275.625
4224,4745,0.12702650000000001,-0.052630750000000004,554.6285710000001,41.406618099999996,-299.5065765
4225,4746,0.12927149999999998,-0.050056050000000005,554.6285710000001,36.535251599999995,-323.388153
4226,4747,0.1291025,-0.045507950000000005,554.6285710000001,31.6638832,-347.269745
4227,4748,0.128938,-0.0411105,554.6285710000001,26.7925167,-371.1513215
4228,4749,0.1260195,-0.0344599,554.6285710000001,21.9211502,-395.032898
4229,4750,0.12115599999999999,-0.0272652,554.6285710000001,17.049784199999998,-418.9144745
4230,4751,0.1138285,-0.0183275,554.6285710000001,12.1784177,-442.796051
4231,4752,0.10055725,-0.006687655,554.6285710000001,7.30705118,-466.67762749999997
4232,4753,0.085651,0.00490995,554.6285710000001,2.43568468,-490.559204
4233,4754,0.08274675000000001,-0.04762730000000001,529.942841,90.120285,-60.690788250000004
4234,4755,0.08270115,-0.0474609,529.942841,85.2489166,-84.5723686
4235,4756,0.08215265,-0.046914449999999996,529.942841,80.377552,-108.45394885000002
4236,4757,0.08265415,-0.04687089999999999,529.942841,75.50618739999999,-132.335529
4237,4758,0.0827871,-0.04650125,529.942841,70.634819,-156.2171095
4238,4759,0.08398375,-0.046646049999999994,529.942841,65.7634525,-180.098686
4239,4760,0.08479600000000001,-0.0464421,529.942841,60.892086,-203.9802625
4240,4761,0.08663755,-0.04675875,529.942841,56.0207195,-227.86183949999997
4241,4762,0.08794865,-0.04661005,529.942841,51.14935299999999,-251.74341599999997
4242,4763,0.09034795,-0.04704355,529.942841,46.277984599999996,-275.625
4243,4764,0.09195814999999999,-0.046746,529.942841,41.406618099999996,-299.5065765
4244,4765,0.0950179,-0.0472456,529.942841,36.535251599999995,-323.388153
4245,4766,0.0969786,-0.046477199999999996,529.942841,31.6638832,-347.269745
4246,4767,0.101535,-0.047152,529.942841,26.7925167,-371.1513215
4247,4768,0.10495950000000001,-0.0454492,529.942841,21.9211502,-395.032898
4248,4769,0.114117,-0.047168,529.942841,17.049784199999998,-418.9144745
4249,4770,0.124375,-0.0437264,529.942841,12.1784177,-442.796051
4250,4771,0.148958,-0.0510588,529.942841,7.30705118,-466.67762749999997
4251,4772,0.2149165,-0.03941715,529.942841,2.43568468,-490.559204
4252,4773,0.08521375,-0.04907675,505.25712599999997,90.120285,-60.690788250000004
4253,4774,0.08426834999999999,-0.0483971,505.25712599999997,85.2489166,-84.5723686
4254,4775,0.08443565,-0.048272100000000005,505.25712599999997,80.377552,-108.45394885000002
4255,4776,0.08429885,-0.047862699999999994,505.25712599999997,75.50618739999999,-132.335529
4256,4777,0.08518295000000001,-0.047936,505.25712599999997,70.634819,-156.2171095
4257,4778,0.08581064999999999,-0.04773495,505.25712599999997,65.7634525,-180.098686
4258,4779,0.08739554999999999,-0.0480053,505.25712599999997,60.892086,-203.9802625
4259,4780,0.08867765,-0.04795295,505.25712599999997,56.0207195,-227.86183949999997
4260,4781,0.09085425,-0.0483918,505.25712599999997,51.14935299999999,-251.74341599999997
4261,4782,0.0926341,-0.048374,505.25712599999997,46.277984599999996,-275.625
4262,4783,0.09532299999999999,-0.0489313,505.25712599999997,41.406618099999996,-299.5065765
4263,4784,0.09758860000000001,-0.0487588,505.25712599999997,36.535251599999995,-323.388153
4264,4785,0.10096150000000001,-0.04937805000000001,505.25712599999997,31.6638832,-347.269745
4265,4786,0.104381,-0.0487618,505.25712599999997,26.7925167,-371.1513215
4266,4787,0.109373,-0.0494266,505.25712599999997,21.9211502,-395.032898
4267,4788,0.11745249999999999,-0.04801775,505.25712599999997,17.049784199999998,-418.9144745
4268,4789,0.12625599999999998,-0.0481362,505.25712599999997,12.1784177,-442.796051
4269,4790,0.158542,-0.0455394,505.25712599999997,7.30705118,-466.67762749999997
4270,4791,0.1645005,-0.013176400000000001,505.25712599999997,2.43568468,-490.559204
4271,4792,0.0871164,-0.0501988,480.5714264999999,90.120285,-60.690788250000004
4272,4793,0.0866211,-0.049788149999999996,480.5714264999999,85.2489166,-84.5723686
4273,4794,0.08587900000000001,-0.04913615,480.5714264999999,80.377552,-108.45394885000002
4274,4795,0.08633389999999999,-0.04907405,480.5714264999999,75.50618739999999,-132.335529
4275,4796,0.08665624999999999,-0.048807699999999996,480.5714264999999,70.634819,-156.2171095
4276,4797,0.08792710000000001,-0.0489921,480.5714264999999,65.7634525,-180.098686
4277,4798,0.08909405000000001,-0.048972550000000004,480.5714264999999,60.892086,-203.9802625
4278,4799,0.09103885,-0.0493585,480.5714264999999,56.0207195,-227.86183949999997
4279,4800,0.092891,-0.049499299999999996,480.5714264999999,51.14935299999999,-251.74341599999997
4280,4801,0.0953363,-0.0500289,480.5714264999999,46.277984599999996,-275.625
4281,4802,0.09780315,-0.05021775,480.5714264999999,41.406618099999996,-299.5065765
4282,4803,0.1005615,-0.05074265,480.5714264999999,36.535251599999995,-323.388153
4283,4804,0.103881,-0.050756850000000006,480.5714264999999,31.6638832,-347.269745
4284,4805,0.10676000000000001,-0.0508286,480.5714264999999,26.7925167,-371.1513215
4285,4806,0.1123885,-0.05020595,480.5714264999999,21.9211502,-395.032898
4286,4807,0.114986,-0.04807555000000001,480.5714264999999,17.049784199999998,-418.9144745
4287,4808,0.12923600000000002,-0.0456682,480.5714264999999,12.1784177,-442.796051
4288,4809,0.1297655,-0.028481900000000004,480.5714264999999,7.30705118,-466.67762749999997
4289,4810,0.1335075,-0.010858449999999999,480.5714264999999,2.43568468,-490.559204
4290,4811,0.0902867,-0.052065600000000004,455.88571199999996,90.120285,-60.690788250000004
4291,4812,0.08813825,-0.0506963,455.88571199999996,85.2489166,-84.5723686
4292,4813,0.08791225,-0.05034855,455.88571199999996,80.377552,-108.45394885000002
4293,4814,0.087623,-0.04984145,455.88571199999996,75.50618739999999,-132.335529
4294,4815,0.08844839999999998,-0.0498702,455.88571199999996,70.634819,-156.2171095
4295,4816,0.08932185,-0.049782900000000005,455.88571199999996,65.7634525,-180.098686
4296,4817,0.0909491,-0.05005695,455.88571199999996,60.892086,-203.9802625
4297,4818,0.09269630000000001,-0.050229300000000005,455.88571199999996,56.0207195,-227.86183949999997
4298,4819,0.09488954999999999,-0.05066425,455.88571199999996,51.14935299999999,-251.74341599999997
4299,4820,0.09737024999999999,-0.051002650000000004,455.88571199999996,46.277984599999996,-275.625
4300,4821,0.09981945,-0.0514395,455.88571199999996,41.406618099999996,-299.5065765
4301,4822,0.1030205,-0.051784,455.88571199999996,36.535251599999995,-323.388153
4302,4823,0.105104,-0.05170845,455.88571199999996,31.6638832,-347.269745
4303,4824,0.1092475,-0.05156905,455.88571199999996,26.7925167,-371.1513215
4304,4825,0.10960249999999999,-0.049314300000000005,455.88571199999996,21.9211502,-395.032898
4305,4826,0.1156805,-0.047212000000000004,455.88571199999996,17.049784199999998,-418.9144745
4306,4827,0.1123085,-0.036833199999999996,455.88571199999996,12.1784177,-442.796051
4307,4828,0.113747,-0.026191,455.88571199999996,7.30705118,-466.67762749999997
4308,4829,0.11374150000000001,-0.00735787,455.88571199999996,2.43568468,-490.559204
4309,4830,0.09163065,-0.05286775,431.199997,90.120285,-60.690788250000004
4310,4831,0.0904174,-0.052053050000000003,431.199997,85.2489166,-84.5723686
4311,4832,0.08907889999999999,-0.051056649999999995,431.199997,80.377552,-108.45394885000002
4312,4833,0.08928,-0.050833249999999996,431.199997,75.50618739999999,-132.335529
4313,4834,0.08961535000000001,-0.050546,431.199997,70.634819,-156.2171095
4314,4835,0.0908112,-0.0506538,431.199997,65.7634525,-180.098686
4315,4836,0.0922588,-0.05074785,431.199997,60.892086,-203.9802625
4316,4837,0.09411169999999999,-0.05103165,431.199997,56.0207195,-227.86183949999997
4317,4838,0.09639519999999999,-0.05135390000000001,431.199997,51.14935299999999,-251.74341599999997
4318,4839,0.09858475,-0.051666949999999996,431.199997,46.277984599999996,-275.625
4319,4840,0.1015745,-0.052100549999999995,431.199997,41.406618099999996,-299.5065765
4320,4841,0.1034755,-0.05203915,431.199997,36.535251599999995,-323.388153
4321,4842,0.10693549999999999,-0.0522247,431.199997,31.6638832,-347.269745
4322,4843,0.107041,-0.0505346,431.199997,26.7925167,-371.1513215
4323,4844,0.110099,-0.049204,431.199997,21.9211502,-395.032898
4324,4845,0.105768,-0.04251115,431.199997,17.049784199999998,-418.9144745
4325,4846,0.104311,-0.0357542,431.199997,12.1784177,-442.796051
4326,4847,0.0979755,-0.021642099999999997,431.199997,7.30705118,-466.67762749999997
4327,4848,0.0941617,-0.00659577,431.199997,2.43568468,-490.559204
4328,4849,0.09386295,-0.05416610000000001,406.514282,90.120285,-60.690788250000004
4329,4850,0.0913263,-0.05261455,406.514282,85.2489166,-84.5723686
4330,4851,0.0907202,-0.052046350000000005,406.514282,80.377552,-108.45394885000002
4331,4852,0.09026089999999999,-0.05142435000000001,406.514282,75.50618739999999,-132.335529
4332,4853,0.09093090000000001,-0.05132735000000001,406.514282,70.634819,-156.2171095
4333,4854,0.0919109,-0.051261650000000006,406.514282,65.7634525,-180.098686
4334,4855,0.09332485000000001,-0.05135965,406.514282,60.892086,-203.9802625
4335,4856,0.09522825,-0.05156075,406.514282,56.0207195,-227.86183949999997
4336,4857,0.09706035,-0.05169775,406.514282,51.14935299999999,-251.74341599999997
4337,4858,0.09967365,-0.052038799999999996,406.514282,46.277984599999996,-275.625
4338,4859,0.10145200000000001,-0.05194225,406.514282,41.406618099999996,-299.5065765
4339,4860,0.1044755,-0.0522073,406.514282,36.535251599999995,-323.388153
4340,4861,0.10505149999999999,-0.05108884999999999,406.514282,31.6638832,-347.269745
4341,4862,0.1073865,-0.0504932,406.514282,26.7925167,-371.1513215
4342,4863,0.104172,-0.046287350000000005,406.514282,21.9211502,-395.032898
4343,4864,0.10214200000000001,-0.0423012,406.514282,17.049784199999998,-418.9144745
4344,4865,0.0931632,-0.03228235,406.514282,12.1784177,-442.796051
4345,4866,0.08451095,-0.021346700000000003,406.514282,7.30705118,-466.67762749999997
4346,4867,0.0779477,-0.005605664999999999,406.514282,2.43568468,-490.559204
4347,4868,0.09440305,-0.05447565,381.82856749999996,90.120285,-60.690788250000004
4348,4869,0.09283715000000001,-0.053515549999999995,381.82856749999996,85.2489166,-84.5723686
4349,4870,0.0914159,-0.05248615000000001,381.82856749999996,80.377552,-108.45394885000002
4350,4871,0.0915337,-0.05218825,381.82856749999996,75.50618739999999,-132.335529
4351,4872,0.09195895,-0.0519302,381.82856749999996,70.634819,-156.2171095
4352,4873,0.09288725,-0.051842849999999996,381.82856749999996,65.7634525,-180.098686
4353,4874,0.0943055,-0.051883849999999995,381.82856749999996,60.892086,-203.9802625
4354,4875,0.09566965,-0.05181895,381.82856749999996,56.0207195,-227.86183949999997
4355,4876,0.09775734999999999,-0.05197355000000001,381.82856749999996,51.14935299999999,-251.74341599999997
4356,4877,0.09922425,-0.05174105,381.82856749999996,46.277984599999996,-275.625
4357,4878,0.1017245,-0.05186605,381.82856749999996,41.406618099999996,-299.5065765
4358,4879,0.1025865,-0.05102205,381.82856749999996,36.535251599999995,-323.388153
4359,4880,0.10469800000000001,-0.05071285,381.82856749999996,31.6638832,-347.269745
4360,4881,0.10322199999999998,-0.048142149999999995,381.82856749999996,26.7925167,-371.1513215
4361,4882,0.1023075,-0.046115449999999995,381.82856749999996,21.9211502,-395.032898
4362,4883,0.09499915,-0.03964715,381.82856749999996,17.049784199999998,-418.9144745
4363,4884,0.08610300000000001,-0.03274835,381.82856749999996,12.1784177,-442.796051
4364,4885,0.07215205,-0.02016645,381.82856749999996,7.30705118,-466.67762749999997
4365,4886,0.060885999999999996,-0.005608445,381.82856749999996,2.43568468,-490.559204
4366,4887,0.09563125,-0.0551677,357.142853,90.120285,-60.690788250000004
4367,4888,0.09298485000000001,-0.053625950000000006,357.142853,85.2489166,-84.5723686
4368,4889,0.0926358,-0.0532123,357.142853,80.377552,-108.45394885000002
4369,4890,0.0925697,-0.052815600000000004,357.142853,75.50618739999999,-132.335529
4370,4891,0.0930521,-0.052588449999999995,357.142853,70.634819,-156.2171095
4371,4892,0.09399605,-0.05249675,357.142853,65.7634525,-180.098686
4372,4893,0.09485895,-0.05225125,357.142853,60.892086,-203.9802625
4373,4894,0.09636915,-0.05221615,357.142853,56.0207195,-227.86183949999997
4374,4895,0.09735115,-0.05179924999999999,357.142853,51.14935299999999,-251.74341599999997
4375,4896,0.09919575,-0.051689349999999995,357.142853,46.277984599999996,-275.625
4376,4897,0.0998882,-0.050844249999999994,357.142853,41.406618099999996,-299.5065765
4377,4898,0.1015645,-0.050438449999999996,357.142853,36.535251599999995,-323.388153
4378,4899,0.1010255,-0.0486134,357.142853,31.6638832,-347.269745
4379,4900,0.1009745,-0.047333,357.142853,26.7925167,-371.1513215
4380,4901,0.09701555,-0.043451000000000004,357.142853,21.9211502,-395.032898
4381,4902,0.09139749999999999,-0.039936349999999995,357.142853,17.049784199999998,-418.9144745
4382,4903,0.07856774999999999,-0.03148575,357.142853,12.1784177,-442.796051
4383,4904,0.06192525,-0.021425,357.142853,7.30705118,-466.67762749999997
4384,4905,0.04408995,-0.00546872,357.142853,2.43568468,-490.559204
4385,4906,0.09463885,-0.05457405,332.457138,90.120285,-60.690788250000004
4386,4907,0.09403805,-0.05424445,332.457138,85.2489166,-84.5723686
4387,4908,0.09373719999999999,-0.053874950000000005,332.457138,80.377552,-108.45394885000002
4388,4909,0.09389295,-0.05359755,332.457138,75.50618739999999,-132.335529
4389,4910,0.0945036,-0.053464899999999996,332.457138,70.634819,-156.2171095
4390,4911,0.0949303,-0.053101800000000005,332.457138,65.7634525,-180.098686
4391,4912,0.0959363,-0.052941550000000004,332.457138,60.892086,-203.9802625
4392,4913,0.09640225,-0.052369599999999995,332.457138,56.0207195,-227.86183949999997
4393,4914,0.09758755000000001,-0.0520568,332.457138,51.14935299999999,-251.74341599999997
4394,4915,0.09781245000000001,-0.0510959,332.457138,46.277984599999996,-275.625
4395,4916,0.0988326,-0.050464800000000004,332.457138,41.406618099999996,-299.5065765
4396,4917,0.09829275,-0.0488107,332.457138,36.535251599999995,-323.388153
4397,4918,0.0982498,-0.047544600000000006,332.457138,31.6638832,-347.269745
4398,4919,0.09586834999999999,-0.044725,332.457138,26.7925167,-371.1513215
4399,4920,0.0925782,-0.042263499999999996,332.457138,21.9211502,-395.032898
4400,4921,0.08575369999999999,-0.0374862,332.457138,17.049784199999998,-418.9144745
4401,4922,0.07434964999999999,-0.0328192,332.457138,12.1784177,-442.796051
4402,4923,0.052696049999999994,-0.021561950000000003,332.457138,7.30705118,-466.67762749999997
4403,4924,0.02695425,-0.006394075,332.457138,2.43568468,-490.559204
4404,4925,0.095353,-0.055027200000000005,307.771423,90.120285,-60.690788250000004
4405,4926,0.0953993,-0.05504075,307.771423,85.2489166,-84.5723686
4406,4927,0.09535435,-0.05480905,307.771423,80.377552,-108.45394885000002
4407,4928,0.09586655,-0.05477145,307.771423,75.50618739999999,-132.335529
4408,4929,0.09597605000000001,-0.054370100000000005,307.771423,70.634819,-156.2171095
4409,4930,0.0966409,-0.05418005,307.771423,65.7634525,-180.098686
4410,4931,0.09670045,-0.0535346,307.771423,60.892086,-203.9802625
4411,4932,0.09737594999999999,-0.053124450000000004,307.771423,56.0207195,-227.86183949999997
4412,4933,0.0971278,-0.05208335,307.771423,51.14935299999999,-251.74341599999997
4413,4934,0.09752635,-0.05130375,307.771423,46.277984599999996,-275.625
4414,4935,0.0965608,-0.049635200000000004,307.771423,41.406618099999996,-299.5065765
4415,4936,0.09605910000000001,-0.048225149999999994,307.771423,36.535251599999995,-323.388153
4416,4937,0.0937083,-0.04563655,307.771423,31.6638832,-347.269745
4417,4938,0.0909989,-0.0432087,307.771423,26.7925167,-371.1513215
4418,4939,0.08610394999999998,-0.039452,307.771423,21.9211502,-395.032898
4419,4940,0.07852445000000001,-0.0355767,307.771423,17.049784199999998,-418.9144745
4420,4941,0.0683693,-0.0303589,307.771423,12.1784177,-442.796051
4421,4942,0.049346,-0.02454965,307.771423,7.30705118,-466.67762749999997
4422,4943,0.01206755,-0.00664813,307.771423,2.43568468,-490.559204
4423,4944,0.09768485,-0.056373,283.0857085,90.120285,-60.690788250000004
4424,4945,0.0973694,-0.05617219999999999,283.0857085,85.2489166,-84.5723686
4425,4946,0.09798675000000001,-0.0563449,283.0857085,80.377552,-108.45394885000002
4426,4947,0.09786510000000001,-0.05595785,283.0857085,75.50618739999999,-132.335529
4427,4948,0.09834709999999999,-0.055814050000000004,283.0857085,70.634819,-156.2171095
4428,4949,0.09816795,-0.05518485,283.0857085,65.7634525,-180.098686
4429,4950,0.09855649999999999,-0.05479045,283.0857085,60.892086,-203.9802625
4430,4951,0.0980473,-0.0537841,283.0857085,56.0207195,-227.86183949999997
4431,4952,0.09809255,-0.05302035,283.0857085,51.14935299999999,-251.74341599999997
4432,4953,0.096823,-0.05141314999999999,283.0857085,46.277984599999996,-275.625
4433,4954,0.09597725,-0.050025099999999996,283.0857085,41.406618099999996,-299.5065765
4434,4955,0.09329370000000001,-0.0475249,283.0857085,36.535251599999995,-323.388153
4435,4956,0.09054935,-0.04511635,283.0857085,31.6638832,-347.269745
4436,4957,0.08549979999999999,-0.04145285,283.0857085,26.7925167,-371.1513215
4437,4958,0.07908175,-0.037513149999999995,283.0857085,21.9211502,-395.032898
4438,4959,0.07022935,-0.03266255,283.0857085,17.049784199999998,-418.9144745
4439,4960,0.0565897,-0.02657255,283.0857085,12.1784177,-442.796051
4440,4961,0.04217375,-0.0214103,283.0857085,7.30705118,-466.67762749999997
4441,4962,0.02735415,-0.01035929,283.0857085,2.43568468,-490.559204
4442,4963,0.08169045,-0.04714265,258.40000150000003,90.120285,-60.690788250000004
4443,4964,0.08023939999999999,-0.046304450000000004,258.40000150000003,85.2489166,-84.5723686
4444,4965,0.08052034999999999,-0.046458099999999995,258.40000150000003,80.377552,-108.45394885000002
4445,4966,0.08020985,-0.046266100000000004,258.40000150000003,75.50618739999999,-132.335529
4446,4967,0.08037785,-0.04634155,258.40000150000003,70.634819,-156.2171095
4447,4968,0.08032975,-0.046289,258.40000150000003,65.7634525,-180.098686
4448,4969,0.080413,-0.04630365,258.40000150000003,60.892086,-203.9802625
4449,4970,0.08049685000000001,-0.04631545,258.40000150000003,56.0207195,-227.86183949999997
4450,4971,0.08052880000000001,-0.04628775,258.40000150000003,51.14935299999999,-251.74341599999997
4451,4972,0.08076625000000001,-0.046378699999999995,258.40000150000003,46.277984599999996,-275.625
4452,4973,0.08069584999999999,-0.04627615,258.40000150000003,41.406618099999996,-299.5065765
4453,4974,0.08126304999999999,-0.0465555,258.40000150000003,36.535251599999995,-323.388153
4454,4975,0.0809038,-0.04626184999999999,258.40000150000003,31.6638832,-347.269745
4455,4976,0.08232344999999999,-0.0470603,258.40000150000003,26.7925167,-371.1513215
4456,4977,0.08097879999999999,-0.04615895,258.40000150000003,21.9211502,-395.032898
4457,4978,0.08384939999999999,-0.0478964,258.40000150000003,17.049784199999998,-418.9144745
4458,4979,0.07695245,-0.0434301,258.40000150000003,12.1784177,-442.796051
4459,4980,0.07882275,-0.043566549999999996,258.40000150000003,7.30705118,-466.67762749999997
4460,4981,0.088228,-0.0264504,258.40000150000003,2.43568468,-490.559204
4461,4982,0.08046395,-0.0464495,233.71428650000001,90.120285,-60.690788250000004
4462,4983,0.08084135,-0.046668600000000005,233.71428650000001,85.2489166,-84.5723686
4463,4984,0.08076425000000001,-0.04661895,233.71428650000001,80.377552,-108.45394885000002
4464,4985,0.08093465,-0.046700149999999996,233.71428650000001,75.50618739999999,-132.335529
4465,4986,0.08090629999999999,-0.04666675,233.71428650000001,70.634819,-156.2171095
4466,4987,0.08098405,-0.0466829,233.71428650000001,65.7634525,-180.098686
4467,4988,0.08102214999999999,-0.04667545,233.71428650000001,60.892086,-203.9802625
4468,4989,0.08108915,-0.046672950000000005,233.71428650000001,56.0207195,-227.86183949999997
4469,4990,0.08118885,-0.04669075,233.71428650000001,51.14935299999999,-251.74341599999997
4470,4991,0.0812486,-0.04666765,233.71428650000001,46.277984599999996,-275.625
4471,4992,0.0814326,-0.0467308,233.71428650000001,41.406618099999996,-299.5065765
4472,4993,0.08145805,-0.04665885,233.71428650000001,36.535251599999995,-323.388153
4473,4994,0.08183085000000001,-0.046850050000000004,233.71428650000001,31.6638832,-347.269745
4474,4995,0.0818202,-0.0466907,233.71428650000001,26.7925167,-371.1513215
4475,4996,0.08295255,-0.04742135,233.71428650000001,21.9211502,-395.032898
4476,4997,0.0834447,-0.0474015,233.71428650000001,17.049784199999998,-418.9144745
4477,4998,0.0861325,-0.0493093,233.71428650000001,12.1784177,-442.796051
4478,4999,0.0801455,-0.04419445,233.71428650000001,7.30705118,-466.67762749999997
4479,5000,0.0446767,-0.0154434,233.71428650000001,2.43568468,-490.559204
4480,5001,0.08086370000000001,-0.0466843,209.028572,90.120285,-60.690788250000004
4481,5002,0.0812681,-0.04691745,209.028572,85.2489166,-84.5723686
4482,5003,0.08127535,-0.04691035,209.028572,80.377552,-108.45394885000002
4483,5004,0.0814712,-0.047013650000000004,209.028572,75.50618739999999,-132.335529
4484,5005,0.0814732,-0.0469919,209.028572,70.634819,-156.2171095
4485,5006,0.08155224999999999,-0.04701445,209.028572,65.7634525,-180.098686
4486,5007,0.08160195,-0.04700865,209.028572,60.892086,-203.9802625
4487,5008,0.08165404999999999,-0.0470039,209.028572,56.0207195,-227.86183949999997
4488,5009,0.08175625,-0.04701475,209.028572,51.14935299999999,-251.74341599999997
4489,5010,0.08176735,-0.0469783,209.028572,46.277984599999996,-275.625
4490,5011,0.08195539999999998,-0.04701835,209.028572,41.406618099999996,-299.5065765
4491,5012,0.0818321,-0.04690775,209.028572,36.535251599999995,-323.388153
4492,5013,0.0822415,-0.047033,209.028572,31.6638832,-347.269745
4493,5014,0.08179470000000001,-0.04677265,209.028572,26.7925167,-371.1513215
4494,5015,0.083151,-0.04731635,209.028572,21.9211502,-395.032898
4495,5016,0.08238035,-0.046991950000000005,209.028572,17.049784199999998,-418.9144745
4496,5017,0.08646845,-0.0486656,209.028572,12.1784177,-442.796051
4497,5018,0.0729366,-0.04152985000000001,209.028572,7.30705118,-466.67762749999997
4498,5019,0.026967849999999998,-0.015272499999999998,209.028572,2.43568468,-490.559204
4499,5020,0.0828234,-0.0477988,184.34285749999998,90.120285,-60.690788250000004
4500,5021,0.08165365,-0.0471203,184.34285749999998,85.248918525,-84.5723686
4501,5022,0.08207265000000001,-0.0473572,184.34285749999998,80.377553925,-108.45394885000002
4502,5023,0.08186555000000001,-0.04722195,184.34285749999998,75.50618739999999,-132.335529
4503,5024,0.08207924999999999,-0.04732775,184.34285749999998,70.634819,-156.2171095
4504,5025,0.0820619,-0.04729085,184.34285749999998,65.7634525,-180.098686
4505,5026,0.0821471,-0.047310000000000005,184.34285749999998,60.892086,-203.9802625
4506,5027,0.0822245,-0.0473159,184.34285749999998,56.0207195,-227.86183949999997
4507,5028,0.08221785000000001,-0.04727075,184.34285749999998,51.14935299999999,-251.74341599999997
4508,5029,0.08240695,-0.04732815,184.34285749999998,46.277984599999996,-275.625
4509,5030,0.08221434999999999,-0.04716735,184.34285749999998,41.406618099999996,-299.5065765
4510,5031,0.08264815,-0.047348799999999996,184.34285749999998,36.535251599999995,-323.388153
4511,5032,0.08194565,-0.046893000000000004,184.34285749999998,31.663883674999997,-347.269745
4512,5033,0.08304929999999999,-0.0474257,184.34285749999998,26.792517175,-371.1513215
4513,5034,0.08076515000000001,-0.0460654,184.34285749999998,21.921150675,-395.032898
4514,5035,0.082981,-0.04713490000000001,184.34285749999998,17.049784199999998,-418.9144745
4515,5036,0.07280325000000001,-0.041333499999999995,184.34285749999998,12.178417465,-442.796051
4516,5037,0.06869839999999999,-0.039377550000000004,184.34285749999998,7.307050825000001,-466.67762749999997
4517,5038,0.0555761,-0.02149135,184.34285749999998,2.4356840823667216,-490.559204
4518,5039,0.000575673,-0.000311446,159.714287,-2.4356840876332786,-490.559204
4519,5040,0.000593471,-0.000333209,159.714287,-7.307050825,-466.67762749999997
4520,5041,0.00058563,-0.000329634,159.714287,-12.178417465,-442.796051
4521,5042,0.000599341,-0.000335454,159.714287,-17.049784199999998,-418.9144745
4522,5043,0.000600506,-0.00033361649999999997,159.714287,-21.921150675,-395.032898
4523,5044,0.000610991,-0.000336029,159.714287,-26.792517174999997,-371.1513215
4524,5045,0.0006174995,-0.000335743,159.714287,-31.663883674999997,-347.26974500000006
4525,5046,0.0006282925,-0.000337108,159.714287,-36.535251599999995,-323.388153
4526,5047,0.00063864,-0.00033774299999999994,159.714287,-41.406618099999996,-299.5065765
4527,5048,0.0006516250000000001,-0.0003392915,159.714287,-46.277984599999996,-275.625
4528,5049,0.0006647705,-0.00034056449999999997,159.714287,-51.14935299999999,-251.743416
4529,5050,0.0006799795,-0.00034260599999999997,159.714287,-56.0207195,-227.86183949999997
4530,5051,0.0006945160000000001,-0.00034398349999999997,159.714287,-60.89208599999999,-203.98026249999998
4531,5052,0.0007104570000000001,-0.00034570650000000005,159.714287,-65.7634525,-180.09868600000001
4532,5053,0.0007233705,-0.0003445344999999999,159.714287,-70.634819,-156.2171095
4533,5054,0.0007381754999999999,-0.000342832,159.714287,-75.50618739999999,-132.335529
4534,5055,0.0007473855000000001,-0.00032986150000000004,159.714287,-80.377553925,-108.45394885000002
4535,5056,0.0007760585,-0.000321343,159.714287,-85.24891852500001,-84.5723686
4536,5057,0.0008229095000000001,-0.00027704650000000004,159.714287,-90.120285,-60.69078825
4537,5058,0.0006298105,-0.000362383,135.142857,-2.43568468,-490.559204
4538,5059,0.0006021475,-0.000343796,135.142857,-7.307051179999999,-466.67762749999997
4539,5060,0.0006106555,-0.0003471905,135.142857,-12.1784177,-442.796051
4540,5061,0.0006092375000000001,-0.000344575,135.142857,-17.049784199999998,-418.9144745
4541,5062,0.000618251,-0.000346493,135.142857,-21.9211502,-395.032898
4542,5063,0.0006231195000000001,-0.00034603,135.142857,-26.7925167,-371.1513215
4543,5064,0.000632141,-0.000346771,135.142857,-31.6638832,-347.26974500000006
4544,5065,0.0006411585,-0.0003471415,135.142857,-36.535251599999995,-323.388153
4545,5066,0.0006525540000000001,-0.000348095,135.142857,-41.406618099999996,-299.5065765
4546,5067,0.000664672,-0.00034902,135.142857,-46.277984599999996,-275.625
4547,5068,0.000678839,-0.000350659,135.142857,-51.14935299999999,-251.743416
4548,5069,0.0006936290000000001,-0.0003523145,135.142857,-56.0207195,-227.86183949999997
4549,5070,0.0007101789999999999,-0.00035487600000000006,135.142857,-60.89208599999999,-203.98026249999998
4550,5071,0.0007271935000000001,-0.00035733049999999995,135.142857,-65.7634525,-180.09868600000001
4551,5072,0.000744225,-0.000360085,135.142857,-70.634819,-156.2171095
4552,5073,0.000763666,-0.000361557,135.142857,-75.50618739999999,-132.335529
4553,5074,0.000777088,-0.0003594435,135.142857,-80.377552,-108.45394885000002
4554,5075,0.0008090045000000001,-0.000349167,135.142857,-85.2489166,-84.5723686
4555,5076,0.0008302195,-0.0003261045,135.142857,-90.120285,-60.69078825
4556,5077,0.0006029775,-0.000347452,110.5714266,-2.43568468,-490.559204
4557,5078,0.0006346645,-0.0003655565,110.5714266,-7.307051179999999,-466.67762749999997
4558,5079,0.000622303,-0.0003562255,110.5714266,-12.1784177,-442.796051
4559,5080,0.000630079,-0.00035813450000000003,110.5714266,-17.049784199999998,-418.9144745
4560,5081,0.000632601,-0.00035696899999999995,110.5714266,-21.9211502,-395.032898
4561,5082,0.0006384945,-0.00035651599999999997,110.5714266,-26.7925167,-371.1513215
4562,5083,0.0006463045000000001,-0.00035680550000000003,110.5714266,-31.6638832,-347.26974500000006
4563,5084,0.0006552015000000001,-0.00035682849999999996,110.5714266,-36.535251599999995,-323.388153
4564,5085,0.0006659505,-0.000357408,110.5714266,-41.406618099999996,-299.5065765
4565,5086,0.000678065,-0.000358184,110.5714266,-46.277984599999996,-275.625
4566,5087,0.0006917625,-0.0003593315,110.5714266,-51.14935299999999,-251.743416
4567,5088,0.0007071635000000001,-0.0003612235,110.5714266,-56.0207195,-227.86183949999997
4568,5089,0.000724796,-0.00036392900000000003,110.5714266,-60.89208599999999,-203.98026249999998
4569,5090,0.0007433015,-0.000367433,110.5714266,-65.7634525,-180.09868600000001
4570,5091,0.00076723,-0.000373293,110.5714266,-70.634819,-156.2171095
4571,5092,0.0007844695,-0.000375962,110.5714266,-75.50618739999999,-132.335529
4572,5093,0.000818002,-0.00038336049999999997,110.5714266,-80.377552,-108.45394885000002
4573,5094,0.0008086835,-0.00036326749999999997,110.5714266,-85.2489166,-84.5723686
4574,5095,0.0008586225,-0.000341907,110.5714266,-90.120285,-60.69078825
4575,5096,0.0006490064999999999,-0.0003745635,86.0,-2.43568468,-490.559204
4576,5097,0.0006263734999999999,-0.00036074450000000004,86.0,-7.307051179999999,-466.67762749999997
4577,5098,0.000649637,-0.000372706,86.0,-12.1784177,-442.796051
4578,5099,0.000645623,-0.0003682175,86.0,-17.049784199999998,-418.9144745
4579,5100,0.0006488355,-0.0003671065,86.0,-21.9211502,-395.032898
4580,5101,0.0006550919999999999,-0.0003670735,86.0,-26.7925167,-371.1513215
4581,5102,0.00066108,-0.00036616350000000003,86.0,-31.6638832,-347.26974500000006
4582,5103,0.0006703429999999999,-0.0003664865,86.0,-36.535251599999995,-323.388153
4583,5104,0.000679784,-0.0003662985,86.0,-41.406618099999996,-299.5065765
4584,5105,0.0006915014999999999,-0.0003667335,86.0,-46.277984599999996,-275.625
4585,5106,0.0007041365,-0.000367276,86.0,-51.14935299999999,-251.743416
4586,5107,0.000719344,-0.0003685545,86.0,-56.0207195,-227.86183949999997
4587,5108,0.0007355554999999999,-0.0003702885,86.0,-60.89208599999999,-203.98026249999998
4588,5109,0.000756783,-0.000374158,86.0,-65.7634525,-180.09868600000001
4589,5110,0.0007756729999999999,-0.00037673199999999996,86.0,-70.634819,-156.2171095
4590,5111,0.000805628,-0.00038503150000000004,86.0,-75.50618739999999,-132.335529
4591,5112,0.0008122025,-0.0003778285,86.0,-80.377552,-108.45394885000002
4592,5113,0.0008370235000000001,-0.0003799665,86.0,-85.2489166,-84.5723686
4593,5114,0.0007494825,-0.000294068,86.0,-90.120285,-60.69078825
4594,5115,0.0006363320000000001,-0.00036701750000000003,61.428571700000006,-2.43568468,-490.559204
4595,5116,0.000672554,-0.00038710000000000003,61.428571700000006,-7.307051179999999,-466.67762749999997
4596,5117,0.000658037,-0.000377361,61.428571700000006,-12.1784177,-442.796051
4597,5118,0.000663419,-0.000378386,61.428571700000006,-17.049784199999998,-418.9144745
4598,5119,0.000666607,-0.00037721200000000003,61.428571700000006,-21.9211502,-395.032898
4599,5120,0.0006709344999999999,-0.0003762635,61.428571700000006,-26.7925167,-371.1513215
4600,5121,0.0006783984999999999,-0.00037622899999999995,61.428571700000006,-31.6638832,-347.26974500000006
4601,5122,0.000685466,-0.000375486,61.428571700000006,-36.535251599999995,-323.388153
4602,5123,0.0006950405,-0.0003753865,61.428571700000006,-41.406618099999996,-299.5065765
4603,5124,0.0007046775,-0.000374834,61.428571700000006,-46.277984599999996,-275.625
4604,5125,0.0007165955,-0.00037475050000000004,61.428571700000006,-51.14935299999999,-251.743416
4605,5126,0.00072865,-0.00037433,61.428571700000006,-56.0207195,-227.86183949999997
4606,5127,0.0007441565,-0.000374883,61.428571700000006,-60.89208599999999,-203.98026249999998
4607,5128,0.000758609,-0.00037435599999999995,61.428571700000006,-65.7634525,-180.09868600000001
4608,5129,0.000779068,-0.000376483,61.428571700000006,-70.634819,-156.2171095
4609,5130,0.000791356,-0.0003720695,61.428571700000006,-75.50618739999999,-132.335529
4610,5131,0.00080757,-0.0003727305,61.428571700000006,-80.377552,-108.45394885000002
4611,5132,0.000784008,-0.0003405805,61.428571700000006,-85.2489166,-84.5723686
4612,5133,0.0007078125,-0.000304818,61.428571700000006,-90.120285,-60.69078825
4613,5134,0.0007105804999999999,-0.0004075295,36.857142450000005,-2.43568468,-490.559204
4614,5135,0.000673894,-0.0003856635,36.857142450000005,-7.307051179999999,-466.67762749999997
4615,5136,0.0006794895,-0.0003882775,36.857142450000005,-12.1784177,-442.796051
4616,5137,0.000678438,-0.00038572599999999997,36.857142450000005,-17.049784199999998,-418.9144745
4617,5138,0.0006848815,-0.0003868675,36.857142450000005,-21.9211502,-395.032898
4618,5139,0.000689544,-0.000386057,36.857142450000005,-26.7925167,-371.1513215
4619,5140,0.0006957005,-0.00038571699999999994,36.857142450000005,-31.6638832,-347.26974500000006
4620,5141,0.000703054,-0.0003851905,36.857142450000005,-36.535251599999995,-323.388153
4621,5142,0.0007105745,-0.000384285,36.857142450000005,-41.406618099999996,-299.5065765
4622,5143,0.0007196934999999999,-0.0003835125,36.857142450000005,-46.277984599999996,-275.625
4623,5144,0.0007283195,-0.00038191799999999997,36.857142450000005,-51.14935299999999,-251.743416
4624,5145,0.0007389390000000001,-0.0003805655,36.857142450000005,-56.0207195,-227.86183949999997
4625,5146,0.00074771,-0.000377501,36.857142450000005,-60.89208599999999,-203.98026249999998
4626,5147,0.00075888,-0.0003747285,36.857142450000005,-65.7634525,-180.09868600000001
4627,5148,0.0007648735000000001,-0.000367674,36.857142450000005,-70.634819,-156.2171095
4628,5149,0.000769481,-0.00036007249999999997,36.857142450000005,-75.50618739999999,-132.335529
4629,5150,0.0007609485,-0.0003408505,36.857142450000005,-80.377552,-108.45394885000002
4630,5151,0.0007173995,-0.00031421849999999996,36.857142450000005,-85.2489166,-84.5723686
4631,5152,0.0006452435,-0.000263929,36.857142450000005,-90.120285,-60.69078825
4632,5153,0.0006798724999999999,-0.000369808,12.28571415,-2.435684085,-490.559204
4633,5154,0.0006988229999999999,-0.000395332,12.28571415,-7.307050825,-466.67762749999997
4634,5155,0.0006898435,-0.00039156,12.28571415,-12.178417465,-442.796051
4635,5156,0.0007018335000000001,-0.000397085,12.28571415,-17.049784199999998,-418.9144745
4636,5157,0.0007022705,-0.000395004,12.28571415,-21.921150675,-395.032898
4637,5158,0.000709882,-0.000396355,12.28571415,-26.792517175,-371.1513215
4638,5159,0.000714569,-0.000395278,12.28571415,-31.663883675,-347.26974500000006
4639,5160,0.0007212774999999999,-0.000394809,12.28571415,-36.535251599999995,-323.388153
4640,5161,0.0007281894999999999,-0.0003938225,12.28571415,-41.406618099999996,-299.5065765
4641,5162,0.0007350675,-0.000392191,12.28571415,-46.277984599999996,-275.625
4642,5163,0.0007429184999999999,-0.0003905235,12.28571415,-51.14935299999999,-251.743416
4643,5164,0.000748847,-0.000387032,12.28571415,-56.0207195,-227.86183949999997
4644,5165,0.000755368,-0.00038326349999999996,12.28571415,-60.89208599999999,-203.98026249999998
4645,5166,0.0007562755,-0.0003753575,12.28571415,-65.7634525,-180.09868600000001
4646,5167,0.0007540240000000001,-0.000365274,12.28571415,-70.634819,-156.2171095
4647,5168,0.000738884,-0.000346851,12.28571415,-75.50618739999999,-132.335529
4648,5169,0.0007021185,-0.000318553,12.28571415,-80.377553925,-108.45394885000002
4649,5170,0.0006451195,-0.0002813815,12.28571415,-85.248918525,-84.5723686
4650,5171,0.0005013085,-0.00021263850000000003,12.28571415,-90.120285,-60.69078825
4651,5172,0.10025555,0.04811555000000001,1198.5,90.120285,-60.690788250000004
4652,5173,0.110873,0.052941600000000005,1198.5,85.248918525,-84.5723686
4653,5174,0.11902299999999999,0.05395855000000001,1198.5,80.377553925,-108.45394885000002
4654,5175,0.1293875,0.0558515,1198.5,75.50618739999999,-132.335529
4655,5176,0.138345,0.05561765,1198.5,70.634819,-156.2171095
4656,5177,0.14842450000000001,0.05602065,1198.5,65.7634525,-180.098686
4657,5178,0.1580685,0.05537305,1198.5,60.892086,-203.9802625
4658,5179,0.1682345,0.055010149999999994,1198.5,56.0207195,-227.86183949999997
4659,5180,0.1781595,0.05394935,1198.5,51.14935299999999,-251.74341599999997
4660,5181,0.1882295,0.052844,1198.5,46.277984599999996,-275.625
4661,5182,0.1978515,0.050956249999999995,1198.5,41.406618099999996,-299.5065765
4662,5183,0.2073655,0.04870545,1198.5,36.535251599999995,-323.388153
4663,5184,0.2159255,0.04513345,1198.5,31.663883674999997,-347.269745
4664,5185,0.224082,0.040763549999999996,1198.5,26.792517174999997,-371.1513215
4665,5186,0.230962,0.03403705,1198.5,21.921150674999996,-395.032898
4666,5187,0.2354615,0.024993,1198.5,17.049784199999998,-418.9144745
4667,5188,0.2434235,0.0150923,1198.5,12.178417465,-442.796051
4668,5189,0.24461449999999998,-0.005287165,1198.5,7.307050824999999,-466.67762749999997
4669,5190,0.300138,-0.010819595,1198.5,2.4356840823667216,-490.559204
4670,5191,0.09688449999999998,0.0478036,1173.5,90.120285,-60.690788250000004
4671,5192,0.1054675,0.0498133,1173.5,85.2489166,-84.5723686
4672,5193,0.11488099999999998,0.0517886,1173.5,80.377552,-108.45394885000002
4673,5194,0.1237215,0.0514067,1173.5,75.50618739999999,-132.335529
4674,5195,0.133468,0.0518035,1173.5,70.634819,-156.2171095
4675,5196,0.14360050000000002,0.051289799999999997,1173.5,65.7634525,-180.098686
4676,5197,0.1540395,0.0511853,1173.5,60.892086,-203.9802625
4677,5198,0.164814,0.050568600000000005,1173.5,56.0207195,-227.86183949999997
4678,5199,0.17571900000000001,0.05004845,1173.5,51.14935299999999,-251.74341599999997
4679,5200,0.186736,0.0490724,1173.5,46.277984599999996,-275.625
4680,5201,0.1978685,0.04793794999999999,1173.5,41.406618099999996,-299.5065765
4681,5202,0.2087995,0.04615795,1173.5,36.535251599999995,-323.388153
4682,5203,0.21998050000000002,0.04400135,1173.5,31.6638832,-347.269745
4683,5204,0.2307185,0.040491650000000004,1173.5,26.7925167,-371.1513215
4684,5205,0.24129699999999998,0.036609800000000005,1173.5,21.9211502,-395.032898
4685,5206,0.2537015,0.0289143,1173.5,17.049784199999998,-418.9144745
4686,5207,0.2580105,0.0217735,1173.5,12.1784177,-442.796051
4687,5208,0.28743,0.010608469999999998,1173.5,7.30705118,-466.67762749999997
4688,5209,0.28173349999999997,0.032239300000000005,1173.5,2.43568468,-490.559204
4689,5210,0.09149915,0.044903399999999996,1148.5,90.120285,-60.690788250000004
4690,5211,0.10186495,0.04824695,1148.5,85.2489166,-84.5723686
4691,5212,0.11068249999999999,0.04802095000000001,1148.5,80.377552,-108.45394885000002
4692,5213,0.11911,0.047997750000000006,1148.5,75.50618739999999,-132.335529
4693,5214,0.1292195,0.047428250000000005,1148.5,70.634819,-156.2171095
4694,5215,0.1392585,0.047236299999999995,1148.5,65.7634525,-180.098686
4695,5216,0.150495,0.0469155,1148.5,60.892086,-203.9802625
4696,5217,0.1616555,0.046740649999999995,1148.5,56.0207195,-227.86183949999997
4697,5218,0.17348199999999997,0.04645095,1148.5,51.14935299999999,-251.74341599999997
4698,5219,0.1853505,0.04614905,1148.5,46.277984599999996,-275.625
4699,5220,0.197573,0.045705199999999994,1148.5,41.406618099999996,-299.5065765
4700,5221,0.2100665,0.0451562,1148.5,36.535251599999995,-323.388153
4701,5222,0.2227035,0.044269,1148.5,31.6638832,-347.269745
4702,5223,0.2361565,0.043557700000000005,1148.5,26.7925167,-371.1513215
4703,5224,0.24969,0.04099775,1148.5,21.9211502,-395.032898
4704,5225,0.2649715,0.0412432,1148.5,17.049784199999998,-418.9144745
4705,5226,0.2824545,0.03146905,1148.5,12.1784177,-442.796051
4706,5227,0.28926949999999996,0.0404789,1148.5,7.30705118,-466.67762749999997
4707,5228,0.27371049999999997,0.0340772,1148.5,2.43568468,-490.559204
4708,5229,0.08383594999999999,0.041580099999999995,1123.5,90.120285,-60.690788250000004
4709,5230,0.0966621,0.04357405,1123.5,85.2489166,-84.5723686
4710,5231,0.1046005,0.04364435,1123.5,80.377552,-108.45394885000002
4711,5232,0.11501950000000001,0.04343875,1123.5,75.50618739999999,-132.335529
4712,5233,0.124226,0.04298465,1123.5,70.634819,-156.2171095
4713,5234,0.135612,0.042906749999999994,1123.5,65.7634525,-180.098686
4714,5235,0.14655849999999998,0.04279425,1123.5,60.892086,-203.9802625
4715,5236,0.15872350000000002,0.0429423,1123.5,56.0207195,-227.86183949999997
4716,5237,0.17073549999999998,0.043085899999999996,1123.5,51.14935299999999,-251.74341599999997
4717,5238,0.183456,0.0434389,1123.5,46.277984599999996,-275.625
4718,5239,0.196258,0.0438438,1123.5,41.406618099999996,-299.5065765
4719,5240,0.209581,0.04449865,1123.5,36.535251599999995,-323.388153
4720,5241,0.223388,0.045434,1123.5,31.6638832,-347.269745
4721,5242,0.237456,0.046377550000000003,1123.5,26.7925167,-371.1513215
4722,5243,0.2539665,0.049051449999999996,1123.5,21.9211502,-395.032898
4723,5244,0.268283,0.04895645,1123.5,17.049784199999998,-418.9144745
4724,5245,0.2949235,0.0581588,1123.5,12.1784177,-442.796051
4725,5246,0.2941515,0.044941949999999994,1123.5,7.30705118,-466.67762749999997
4726,5247,0.28367149999999997,0.04301615,1123.5,2.43568468,-490.559204
4727,5248,0.0745557,0.03489729999999999,1098.5,90.120285,-60.690788250000004
4728,5249,0.0860556,0.0365551,1098.5,85.2489166,-84.5723686
4729,5250,0.09915005,0.03808545,1098.5,80.377552,-108.45394885000002
4730,5251,0.1083485,0.037757200000000005,1098.5,75.50618739999999,-132.335529
4731,5252,0.1201615,0.0382804,1098.5,70.634819,-156.2171095
4732,5253,0.13082149999999998,0.038136149999999994,1098.5,65.7634525,-180.098686
4733,5254,0.143077,0.038613800000000004,1098.5,60.892086,-203.9802625
4734,5255,0.154933,0.038871249999999996,1098.5,56.0207195,-227.86183949999997
4735,5256,0.167678,0.03960615000000001,1098.5,51.14935299999999,-251.74341599999997
4736,5257,0.18032150000000002,0.0403883,1098.5,46.277984599999996,-275.625
4737,5258,0.1935525,0.0416829,1098.5,41.406618099999996,-299.5065765
4738,5259,0.20689200000000002,0.0433283,1098.5,36.535251599999995,-323.388153
4739,5260,0.220748,0.04565455,1098.5,31.6638832,-347.269745
4740,5261,0.2353855,0.0489834,1098.5,26.7925167,-371.1513215
4741,5262,0.2496815,0.0530253,1098.5,21.9211502,-395.032898
4742,5263,0.26949,0.060147149999999996,1098.5,17.049784199999998,-418.9144745
4743,5264,0.28009249999999997,0.06643385,1098.5,12.1784177,-442.796051
4744,5265,0.321703,0.0762968,1098.5,7.30705118,-466.67762749999997
4745,5266,0.3010395,0.049095749999999994,1098.5,2.43568468,-490.559204
4746,5267,0.05776435,0.025310850000000003,1073.5,90.120285,-60.690788250000004
4747,5268,0.0776961,0.030123449999999996,1073.5,85.2489166,-84.5723686
4748,5269,0.08978725,0.0307933,1073.5,80.377552,-108.45394885000002
4749,5270,0.103278,0.03265255,1073.5,75.50618739999999,-132.335529
4750,5271,0.114397,0.03266885,1073.5,70.634819,-156.2171095
4751,5272,0.126845,0.033561099999999996,1073.5,65.7634525,-180.098686
4752,5273,0.138606,0.0337581,1073.5,60.892086,-203.9802625
4753,5274,0.151186,0.034631999999999996,1073.5,56.0207195,-227.86183949999997
4754,5275,0.163541,0.03536845,1073.5,51.14935299999999,-251.74341599999997
4755,5276,0.176349,0.036738099999999996,1073.5,46.277984599999996,-275.625
4756,5277,0.189081,0.03838975,1073.5,41.406618099999996,-299.5065765
4757,5278,0.2020995,0.040817599999999996,1073.5,36.535251599999995,-323.388153
4758,5279,0.215186,0.0440889,1073.5,31.6638832,-347.269745
4759,5280,0.22852250000000002,0.04852355,1073.5,26.7925167,-371.1513215
4760,5281,0.2425565,0.054522600000000004,1073.5,21.9211502,-395.032898
4761,5282,0.256568,0.0631485,1073.5,17.049784199999998,-418.9144745
4762,5283,0.274309,0.07104085,1073.5,12.1784177,-442.796051
4763,5284,0.29607399999999995,0.090749,1073.5,7.30705118,-466.67762749999997
4764,5285,0.35768449999999996,0.0877647,1073.5,2.43568468,-490.559204
4765,5286,0.014280649999999999,0.00777596,1048.5,90.120285,-60.690788250000004
4766,5287,0.02384845,0.007775955,1048.5,85.248918525,-84.5723686
4767,5288,0.03717619999999999,0.007775955,1048.5,80.377553925,-108.45394885000002
4768,5289,0.0514181,0.00777596,1048.5,75.50618739999999,-132.335529
4769,5290,0.06598445,0.00777596,1048.5,70.634819,-156.2171095
4770,5291,0.08069975,0.007775955,1048.5,65.7634525,-180.098686
4771,5292,0.0954951,0.00777596,1048.5,60.892086,-203.9802625
4772,5293,0.1103385,0.007775955,1048.5,56.0207195,-227.86183949999997
4773,5294,0.1252125,0.00777596,1048.5,51.14935299999999,-251.74341599999997
4774,5295,0.1401075,0.00777596,1048.5,46.277984599999996,-275.625
4775,5296,0.1550175,0.00777596,1048.5,41.406618099999996,-299.5065765
4776,5297,0.1699385,0.00777596,1048.5,36.535251599999995,-323.388153
4777,5298,0.18486799999999998,0.007775955,1048.5,31.663883674999997,-347.269745
4778,5299,0.19980399999999998,0.00777596,1048.5,26.792517175,-371.1513215
4779,5300,0.21474500000000002,0.007775955,1048.5,21.921150675,-395.032898
4780,5301,0.22969,0.00777596,1048.5,17.049784199999998,-418.9144745
4781,5302,0.2446385,0.00777596,1048.5,12.178417465,-442.796051
4782,5303,0.25959,0.00777596,1048.5,7.307050825000001,-466.67762749999997
4783,5304,0.274544,0.00777596,1048.5,2.435684085,-490.559204
4784,5305,0.1014851,0.0340645,1198.5,100.0139923,-12.1875
4785,5306,0.09604580000000001,0.04579125,1198.5,95.04197690000001,-36.5625
4786,5307,0.07235085,0.02416695,1173.5,100.0139923,-12.1875
4787,5308,0.0902331,0.04249525,1173.5,95.04197690000001,-36.5625
4788,5309,0.042497900000000005,0.013975099999999999,1148.5,100.0139923,-12.1875
4789,5310,0.07164075,0.034142650000000004,1148.5,95.04197690000001,-36.5625
4790,5311,0.018366300000000002,0.007831975,1123.5,100.0139923,-12.1875
4791,5312,0.05659915,0.029140950000000002,1123.5,95.04197690000001,-36.5625
4792,5313,0.02680925,0.00550589,1098.5,100.0139923,-12.1875
4793,5314,0.054186849999999995,0.03054715,1098.5,95.04197690000001,-36.5625
4794,5315,0.057077050000000004,0.008261184999999999,1073.5,100.0139923,-12.1875
4795,5316,0.0445884,0.024109949999999998,1073.5,95.04197690000001,-36.5625
4796,5317,0.029021200000000004,0.00777596,1048.5,100.0139923,-12.1875
4797,5318,0.01703775,0.00777596,1048.5,95.04197690000001,-36.5625
4798,5319,0.0009798950000000002,-0.0002813625,159.714287,-95.0419769,-36.5625
4799,5320,0.00155152,-0.000130644,159.714287,-100.01399229999998,-12.1875
4800,5321,0.00103009,-0.00028770049999999995,135.142857,-95.0419769,-36.5625
4801,5322,0.00119932,-2.054354e-05,135.142857,-100.01399229999998,-12.1875
4802,5323,0.000827489,-0.00018582050000000001,110.5714266,-95.0419769,-36.5625
4803,5324,0.0009021125,6.001085e-05,110.5714266,-100.01399229999998,-12.1875
4804,5325,0.0006383945,-0.0001549165,86.0,-95.0419769,-36.5625
4805,5326,0.000623859,9.919980000000001e-05,86.0,-100.01399229999998,-12.1875
4806,5327,0.00046111650000000003,-0.00014311,61.428571700000006,-95.0419769,-36.5625
4807,5328,0.000352787,0.00010594865,61.428571700000006,-100.01399229999998,-12.1875
4808,5329,0.0004096865,-0.0001968925,36.857142450000005,-95.0419769,-36.5625
4809,5330,0.0001671045,7.83046e-05,36.857142450000005,-100.01399229999998,-12.1875
4810,5331,0.00036034,-0.00016545900000000002,12.28571415,-95.0419769,-36.5625
4811,5332,0.00039930299999999994,1.0777629999999999e-05,12.28571415,-100.01399229999998,-12.1875
4812,5333,0.184301,-0.03342265,1048.5,13.2644758,100.75370025000001
4813,5334,0.2002965,-0.049436400000000005,1073.5,13.2644758,100.75370025000001
4814,5335,0.2137905,-0.0484267,1098.5,13.2644758,100.75370025000001
4815,5336,0.20426450000000002,-0.0486988,1123.5,13.2644758,100.75370025000001
4816,5337,0.20120300000000002,-0.048253199999999996,1148.5,13.2644758,100.75370025000001
4817,5338,0.20155050000000002,-0.049450900000000006,1173.5,13.2644758,100.75370025000001
4818,5339,0.180828,-0.0456838,1198.5,13.2644758,100.75370025000001
4819,5340,0.15999950000000002,-0.02995345,1048.5,38.8894758,93.88750075
4820,5341,0.171942,-0.041501050000000005,1073.5,38.8894758,93.88750075
4821,5342,0.178269,-0.0414337,1098.5,38.8894758,93.88750075
4822,5343,0.1686225,-0.041466649999999994,1123.5,38.8894758,93.88750075
4823,5344,0.1568665,-0.0415223,1148.5,38.8894758,93.88750075
4824,5345,0.15671249999999998,-0.04292155,1173.5,38.8894758,93.88750075
4825,5346,0.13568750000000002,-0.0393858,1198.5,38.8894758,93.88750075
4826,5347,0.131824,-0.02470415,1048.5,61.86422350000001,80.623024
4827,5348,0.1380175,-0.0307241,1073.5,61.86422350000001,80.623024
4828,5349,0.1393675,-0.0287684,1098.5,61.86422350000001,80.623024
4829,5350,0.12355500000000001,-0.0294943,1123.5,61.86422350000001,80.623024
4830,5351,0.111622,-0.03026115,1148.5,61.86422350000001,80.623024
4831,5352,0.10533234999999999,-0.032392649999999995,1173.5,61.86422350000001,80.623024
4832,5353,0.08767385,-0.02902325,1198.5,61.86422350000001,80.623024
4833,5354,0.1016995,-0.01803255,1048.5,80.623024,61.8642235
4834,5355,0.101654,-0.013512050000000001,1073.5,80.623024,61.8642235
4835,5356,0.095418,-0.013998650000000001,1098.5,80.623024,61.8642235
4836,5357,0.08448415000000001,-0.0152234,1123.5,80.623024,61.8642235
4837,5358,0.06377425,-0.01424375,1148.5,80.623024,61.8642235
4838,5359,0.0523536,-0.015150700000000001,1173.5,80.623024,61.8642235
4839,5360,0.0287627,-0.010192510000000002,1198.5,80.623024,61.8642235
4840,5361,0.07184415,-0.01039325,1048.5,93.88750075,38.8894758
4841,5362,0.07149704999999999,-0.000816982,1073.5,93.88750075,38.8894758
4842,5363,0.0716117,0.00195371,1098.5,93.88750075,38.8894758
4843,5364,0.054185149999999994,0.006340139999999999,1123.5,93.88750075,38.8894758
4844,5365,0.0291341,0.009229155,1148.5,93.88750075,38.8894758
4845,5366,0.0242976,0.009809205,1173.5,93.88750075,38.8894758
4846,5367,0.0370672,0.0144352,1198.5,93.88750075,38.8894758
4847,5368,0.045021900000000004,-0.00230686,1048.5,100.75370025000001,13.2644758
4848,5369,0.0948667,0.02469095,1073.5,100.75370025000001,13.2644758
4849,5370,0.07852775,0.0338215,1098.5,100.75370025000001,13.2644758
4850,5371,0.0633621,0.035047,1123.5,100.75370025000001,13.2644758
4851,5372,0.0683288,0.03788905,1148.5,100.75370025000001,13.2644758
4852,5373,0.0905301,0.04450845,1173.5,100.75370025000001,13.2644758
4853,5374,0.10903650000000001,0.043702950000000004,1198.5,100.75370025000001,13.2644758
4854,5431,0.0008229095000000001,-0.00027704650000000004,159.714287,90.120285,-60.690788250000004
4855,5432,0.0007760585,-0.000321343,159.714287,85.248918525,-84.5723686
4856,5433,0.0007473855000000001,-0.00032986150000000004,159.714287,80.377553925,-108.45394885000002
4857,5434,0.0007381754999999999,-0.000342832,159.714287,75.50618739999999,-132.335529
4858,5435,0.0007233705,-0.0003445344999999999,159.714287,70.634819,-156.2171095
4859,5436,0.0007104570000000001,-0.00034570650000000005,159.714287,65.7634525,-180.098686
4860,5437,0.0006945160000000001,-0.00034398349999999997,159.714287,60.892086,-203.9802625
4861,5438,0.0006799795,-0.00034260599999999997,159.714287,56.0207195,-227.86183949999997
4862,5439,0.0006647705,-0.00034056449999999997,159.714287,51.14935299999999,-251.74341599999997
4863,5440,0.0006516250000000001,-0.0003392915,159.714287,46.277984599999996,-275.625
4864,5441,0.00063864,-0.00033774299999999994,159.714287,41.406618099999996,-299.5065765
4865,5442,0.0006282925,-0.000337108,159.714287,36.535251599999995,-323.388153
4866,5443,0.0006174995,-0.000335743,159.714287,31.663883674999997,-347.269745
4867,5444,0.000610991,-0.000336029,159.714287,26.792517174999997,-371.1513215
4868,5445,0.000600506,-0.00033361649999999997,159.714287,21.921150674999996,-395.032898
4869,5446,0.000599341,-0.000335454,159.714287,17.049784199999998,-418.9144745
4870,5447,0.00058563,-0.000329634,159.714287,12.178417465,-442.796051
4871,5448,0.000593471,-0.000333209,159.714287,7.307050824999999,-466.67762749999997
4872,5449,0.000575673,-0.000311446,159.714287,2.4356840823667216,-490.559204
4873,5450,0.0008302195,-0.0003261045,135.142857,90.120285,-60.690788250000004
4874,5451,0.0008090045000000001,-0.000349167,135.142857,85.2489166,-84.5723686
4875,5452,0.000777088,-0.0003594435,135.142857,80.377552,-108.45394885000002
4876,5453,0.000763666,-0.000361557,135.142857,75.50618739999999,-132.335529
4877,5454,0.000744225,-0.000360085,135.142857,70.634819,-156.2171095
4878,5455,0.0007271935000000001,-0.00035733049999999995,135.142857,65.7634525,-180.098686
4879,5456,0.0007101789999999999,-0.00035487600000000006,135.142857,60.892086,-203.9802625
4880,5457,0.0006936290000000001,-0.0003523145,135.142857,56.0207195,-227.86183949999997
4881,5458,0.000678839,-0.000350659,135.142857,51.14935299999999,-251.74341599999997
4882,5459,0.000664672,-0.00034902,135.142857,46.277984599999996,-275.625
4883,5460,0.0006525540000000001,-0.000348095,135.142857,41.406618099999996,-299.5065765
4884,5461,0.0006411585,-0.0003471415,135.142857,36.535251599999995,-323.388153
4885,5462,0.000632141,-0.000346771,135.142857,31.6638832,-347.269745
4886,5463,0.0006231195000000001,-0.00034603,135.142857,26.7925167,-371.1513215
4887,5464,0.000618251,-0.000346493,135.142857,21.9211502,-395.032898
4888,5465,0.0006092375000000001,-0.000344575,135.142857,17.049784199999998,-418.9144745
4889,5466,0.0006106555,-0.0003471905,135.142857,12.1784177,-442.796051
4890,5467,0.0006021475,-0.000343796,135.142857,7.30705118,-466.67762749999997
4891,5468,0.0006298105,-0.000362383,135.142857,2.43568468,-490.559204
4892,5469,0.0008586225,-0.000341907,110.5714266,90.120285,-60.690788250000004
4893,5470,0.0008086835,-0.00036326749999999997,110.5714266,85.2489166,-84.5723686
4894,5471,0.000818002,-0.00038336049999999997,110.5714266,80.377552,-108.45394885000002
4895,5472,0.0007844695,-0.000375962,110.5714266,75.50618739999999,-132.335529
4896,5473,0.00076723,-0.000373293,110.5714266,70.634819,-156.2171095
4897,5474,0.0007433015,-0.000367433,110.5714266,65.7634525,-180.098686
4898,5475,0.000724796,-0.00036392900000000003,110.5714266,60.892086,-203.9802625
4899,5476,0.0007071635000000001,-0.0003612235,110.5714266,56.0207195,-227.86183949999997
4900,5477,0.0006917625,-0.0003593315,110.5714266,51.14935299999999,-251.74341599999997
4901,5478,0.000678065,-0.000358184,110.5714266,46.277984599999996,-275.625
4902,5479,0.0006659505,-0.000357408,110.5714266,41.406618099999996,-299.5065765
4903,5480,0.0006552015000000001,-0.00035682849999999996,110.5714266,36.535251599999995,-323.388153
4904,5481,0.0006463045000000001,-0.00035680550000000003,110.5714266,31.6638832,-347.269745
4905,5482,0.0006384945,-0.00035651599999999997,110.5714266,26.7925167,-371.1513215
4906,5483,0.000632601,-0.00035696899999999995,110.5714266,21.9211502,-395.032898
4907,5484,0.000630079,-0.00035813450000000003,110.5714266,17.049784199999998,-418.9144745
4908,5485,0.000622303,-0.0003562255,110.5714266,12.1784177,-442.796051
4909,5486,0.0006346645,-0.0003655565,110.5714266,7.30705118,-466.67762749999997
4910,5487,0.0006029775,-0.000347452,110.5714266,2.43568468,-490.559204
4911,5488,0.0007494825,-0.000294068,86.0,90.120285,-60.690788250000004
4912,5489,0.0008370235000000001,-0.0003799665,86.0,85.2489166,-84.5723686
4913,5490,0.0008122025,-0.0003778285,86.0,80.377552,-108.45394885000002
4914,5491,0.000805628,-0.00038503150000000004,86.0,75.50618739999999,-132.335529
4915,5492,0.0007756729999999999,-0.00037673199999999996,86.0,70.634819,-156.2171095
4916,5493,0.000756783,-0.000374158,86.0,65.7634525,-180.098686
4917,5494,0.0007355554999999999,-0.0003702885,86.0,60.892086,-203.9802625
4918,5495,0.000719344,-0.0003685545,86.0,56.0207195,-227.86183949999997
4919,5496,0.0007041365,-0.000367276,86.0,51.14935299999999,-251.74341599999997
4920,5497,0.0006915014999999999,-0.0003667335,86.0,46.277984599999996,-275.625
4921,5498,0.000679784,-0.0003662985,86.0,41.406618099999996,-299.5065765
4922,5499,0.0006703429999999999,-0.0003664865,86.0,36.535251599999995,-323.388153
4923,5500,0.00066108,-0.00036616350000000003,86.0,31.6638832,-347.269745
4924,5501,0.0006550919999999999,-0.0003670735,86.0,26.7925167,-371.1513215
4925,5502,0.0006488355,-0.0003671065,86.0,21.9211502,-395.032898
4926,5503,0.000645623,-0.0003682175,86.0,17.049784199999998,-418.9144745
4927,5504,0.000649637,-0.000372706,86.0,12.1784177,-442.796051
4928,5505,0.0006263734999999999,-0.00036074450000000004,86.0,7.30705118,-466.67762749999997
4929,5506,0.0006490064999999999,-0.0003745635,86.0,2.43568468,-490.559204
4930,5507,0.0007078125,-0.000304818,61.428571700000006,90.120285,-60.690788250000004
4931,5508,0.000784008,-0.0003405805,61.428571700000006,85.2489166,-84.5723686
4932,5509,0.00080757,-0.0003727305,61.428571700000006,80.377552,-108.45394885000002
4933,5510,0.000791356,-0.0003720695,61.428571700000006,75.50618739999999,-132.335529
4934,5511,0.000779068,-0.000376483,61.428571700000006,70.634819,-156.2171095
4935,5512,0.000758609,-0.00037435599999999995,61.428571700000006,65.7634525,-180.098686
4936,5513,0.0007441565,-0.000374883,61.428571700000006,60.892086,-203.9802625
4937,5514,0.00072865,-0.00037433,61.428571700000006,56.0207195,-227.86183949999997
4938,5515,0.0007165955,-0.00037475050000000004,61.428571700000006,51.14935299999999,-251.74341599999997
4939,5516,0.0007046775,-0.000374834,61.428571700000006,46.277984599999996,-275.625
4940,5517,0.0006950405,-0.0003753865,61.428571700000006,41.406618099999996,-299.5065765
4941,5518,0.000685466,-0.000375486,61.428571700000006,36.535251599999995,-323.388153
4942,5519,0.0006783984999999999,-0.00037622899999999995,61.428571700000006,31.6638832,-347.269745
4943,5520,0.0006709344999999999,-0.0003762635,61.428571700000006,26.7925167,-371.1513215
4944,5521,0.000666607,-0.00037721200000000003,61.428571700000006,21.9211502,-395.032898
4945,5522,0.000663419,-0.000378386,61.428571700000006,17.049784199999998,-418.9144745
4946,5523,0.000658037,-0.000377361,61.428571700000006,12.1784177,-442.796051
4947,5524,0.000672554,-0.00038710000000000003,61.428571700000006,7.30705118,-466.67762749999997
4948,5525,0.0006363320000000001,-0.00036701750000000003,61.428571700000006,2.43568468,-490.559204
4949,5526,0.0006452435,-0.000263929,36.857142450000005,90.120285,-60.690788250000004
4950,5527,0.0007173995,-0.00031421849999999996,36.857142450000005,85.2489166,-84.5723686
4951,5528,0.0007609485,-0.0003408505,36.857142450000005,80.377552,-108.45394885000002
4952,5529,0.000769481,-0.00036007249999999997,36.857142450000005,75.50618739999999,-132.335529
4953,5530,0.0007648735000000001,-0.000367674,36.857142450000005,70.634819,-156.2171095
4954,5531,0.00075888,-0.0003747285,36.857142450000005,65.7634525,-180.098686
4955,5532,0.00074771,-0.000377501,36.857142450000005,60.892086,-203.9802625
4956,5533,0.0007389390000000001,-0.0003805655,36.857142450000005,56.0207195,-227.86183949999997
4957,5534,0.0007283195,-0.00038191799999999997,36.857142450000005,51.14935299999999,-251.74341599999997
4958,5535,0.0007196934999999999,-0.0003835125,36.857142450000005,46.277984599999996,-275.625
4959,5536,0.0007105745,-0.000384285,36.857142450000005,41.406618099999996,-299.5065765
4960,5537,0.000703054,-0.0003851905,36.857142450000005,36.535251599999995,-323.388153
4961,5538,0.0006957005,-0.00038571699999999994,36.857142450000005,31.6638832,-347.269745
4962,5539,0.000689544,-0.000386057,36.857142450000005,26.7925167,-371.1513215
4963,5540,0.0006848815,-0.0003868675,36.857142450000005,21.9211502,-395.032898
4964,5541,0.000678438,-0.00038572599999999997,36.857142450000005,17.049784199999998,-418.9144745
4965,5542,0.0006794895,-0.0003882775,36.857142450000005,12.1784177,-442.796051
4966,5543,0.000673894,-0.0003856635,36.857142450000005,7.30705118,-466.67762749999997
4967,5544,0.0007105804999999999,-0.0004075295,36.857142450000005,2.43568468,-490.559204
4968,5545,0.0005013085,-0.00021263850000000003,12.28571415,90.120285,-60.690788250000004
4969,5546,0.0006451195,-0.0002813815,12.28571415,85.248918525,-84.5723686
4970,5547,0.0007021185,-0.000318553,12.28571415,80.377553925,-108.45394885000002
4971,5548,0.000738884,-0.000346851,12.28571415,75.50618739999999,-132.335529
4972,5549,0.0007540240000000001,-0.000365274,12.28571415,70.634819,-156.2171095
4973,5550,0.0007562755,-0.0003753575,12.28571415,65.7634525,-180.098686
4974,5551,0.000755368,-0.00038326349999999996,12.28571415,60.892086,-203.9802625
4975,5552,0.000748847,-0.000387032,12.28571415,56.0207195,-227.86183949999997
4976,5553,0.0007429184999999999,-0.0003905235,12.28571415,51.14935299999999,-251.74341599999997
4977,5554,0.0007350675,-0.000392191,12.28571415,46.277984599999996,-275.625
4978,5555,0.0007281894999999999,-0.0003938225,12.28571415,41.406618099999996,-299.5065765
4979,5556,0.0007212774999999999,-0.000394809,12.28571415,36.535251599999995,-323.388153
4980,5557,0.000714569,-0.000395278,12.28571415,31.663883674999997,-347.269745
4981,5558,0.000709882,-0.000396355,12.28571415,26.792517175,-371.1513215
4982,5559,0.0007022705,-0.000395004,12.28571415,21.921150675,-395.032898
4983,5560,0.0007018335000000001,-0.000397085,12.28571415,17.049784199999998,-418.9144745
4984,5561,0.0006898435,-0.00039156,12.28571415,12.178417465,-442.796051
4985,5562,0.0006988229999999999,-0.000395332,12.28571415,7.307050825000001,-466.67762749999997
4986,5563,0.0006798724999999999,-0.000369808,12.28571415,2.435684085,-490.559204
4987,5564,0.405915,0.06413575,1023.6571349999999,-2.435684085,-490.559204
4988,5565,0.2865685,0.07610845,1023.6571349999999,-7.307050825,-466.67762749999997
4989,5566,0.240991,0.056444799999999996,1023.6571349999999,-12.178417465,-442.796051
4990,5567,0.209465,0.0565237,1023.6571349999999,-17.049784199999998,-418.9144745
4991,5568,0.1833105,0.0486935,1023.6571349999999,-21.921150675,-395.032898
4992,5569,0.1623115,0.04732185,1023.6571349999999,-26.792517174999997,-371.1513215
4993,5570,0.14198099999999997,0.04297505,1023.6571349999999,-31.663883674999997,-347.26974500000006
4994,5571,0.12427850000000001,0.04150775,1023.6571349999999,-36.535251599999995,-323.388153
4995,5572,0.10681850000000001,0.03887825,1023.6571349999999,-41.406618099999996,-299.5065765
4996,5573,0.09180050000000001,0.037913350000000005,1023.6571349999999,-46.277984599999996,-275.625
4997,5574,0.07807214999999999,0.036533300000000005,1023.6571349999999,-51.14935299999999,-251.743416
4998,5575,0.06854825,0.0363526,1023.6571349999999,-56.0207195,-227.86183949999997
4999,5576,0.0630675,0.0360707,1023.6571349999999,-60.89208599999999,-203.98026249999998
5000,5577,0.0645931,0.036840849999999994,1023.6571349999999,-65.7634525,-180.09868600000001
5001,5578,0.07110525000000001,0.03757555,1023.6571349999999,-70.634819,-156.2171095
5002,5579,0.08311195,0.039516,1023.6571349999999,-75.50618739999999,-132.335529
5003,5580,0.09726915,0.04113965,1023.6571349999999,-80.377553925,-108.45394885000002
5004,5581,0.115041,0.044803449999999995,1023.6571349999999,-85.24891852500001,-84.5723686
5005,5582,0.1337675,0.046930150000000004,1023.6571349999999,-90.120285,-60.69078825
5006,5583,0.3319875,0.0156631,998.9714355,-2.43568468,-490.559204
5007,5584,0.31670200000000004,0.0641546,998.9714355,-7.307051179999999,-466.67762749999997
5008,5585,0.24741850000000004,0.062926,998.9714355,-12.1784177,-442.796051
5009,5586,0.2227925,0.057969349999999996,998.9714355,-17.049784199999998,-418.9144745
5010,5587,0.19277650000000002,0.055982000000000004,998.9714355,-21.9211502,-395.032898
5011,5588,0.1720795,0.051511749999999995,998.9714355,-26.7925167,-371.1513215
5012,5589,0.151002,0.049551200000000004,998.9714355,-31.6638832,-347.26974500000006
5013,5590,0.132734,0.046499250000000006,998.9714355,-36.535251599999995,-323.388153
5014,5591,0.1155445,0.045084149999999996,998.9714355,-41.406618099999996,-299.5065765
5015,5592,0.10004355000000001,0.0432461,998.9714355,-46.277984599999996,-275.625
5016,5593,0.08729674999999999,0.0425951,998.9714355,-51.14935299999999,-251.743416
5017,5594,0.07753695,0.0418352,998.9714355,-56.0207195,-227.86183949999997
5018,5595,0.07327544999999999,0.042035249999999996,998.9714355,-60.89208599999999,-203.98026249999998
5019,5596,0.07413555000000001,0.0422892,998.9714355,-65.7634525,-180.09868600000001
5020,5597,0.08121475,0.043430250000000004,998.9714355,-70.634819,-156.2171095
5021,5598,0.0923783,0.0446632,998.9714355,-75.50618739999999,-132.335529
5022,5599,0.106957,0.0468894,998.9714355,-80.377552,-108.45394885000002
5023,5600,0.124701,0.04903974999999999,998.9714355,-85.2489166,-84.5723686
5024,5601,0.14307999999999998,0.05236985,998.9714355,-90.120285,-60.69078825
5025,5602,0.2907785,0.01397245,974.285736,-2.43568468,-490.559204
5026,5603,0.2793255,0.03392255,974.285736,-7.307051179999999,-466.67762749999997
5027,5604,0.263397,0.05813305,974.285736,-12.1784177,-442.796051
5028,5605,0.2221705,0.0572184,974.285736,-17.049784199999998,-418.9144745
5029,5606,0.2039425,0.05738055,974.285736,-21.9211502,-395.032898
5030,5607,0.177734,0.05509410000000001,974.285736,-26.7925167,-371.1513215
5031,5608,0.1595895,0.05287225,974.285736,-31.6638832,-347.26974500000006
5032,5609,0.139507,0.05098785,974.285736,-36.535251599999995,-323.388153
5033,5610,0.12290300000000001,0.0491154,974.285736,-41.406618099999996,-299.5065765
5034,5611,0.10725,0.0480134,974.285736,-46.277984599999996,-275.625
5035,5612,0.09450905000000001,0.0469516,974.285736,-51.14935299999999,-251.743416
5036,5613,0.085424,0.046640749999999995,974.285736,-56.0207195,-227.86183949999997
5037,5614,0.08088585000000001,0.046458799999999995,974.285736,-60.89208599999999,-203.98026249999998
5038,5615,0.08223435000000001,0.04690255,974.285736,-65.7634525,-180.09868600000001
5039,5616,0.08884519999999999,0.047624349999999996,974.285736,-70.634819,-156.2171095
5040,5617,0.09970404999999999,0.04876445,974.285736,-75.50618739999999,-132.335529
5041,5618,0.11472450000000001,0.050373600000000004,974.285736,-80.377552,-108.45394885000002
5042,5619,0.130332,0.05175225,974.285736,-85.2489166,-84.5723686
5043,5620,0.151555,0.053942149999999994,974.285736,-90.120285,-60.69078825
5044,5621,0.269451,0.00942397,949.6000060000001,-2.43568468,-490.559204
5045,5622,0.260448,0.0322402,949.6000060000001,-7.307051179999999,-466.67762749999997
5046,5623,0.24374099999999999,0.042523200000000004,949.6000060000001,-12.1784177,-442.796051
5047,5624,0.230494,0.05576975,949.6000060000001,-17.049784199999998,-418.9144745
5048,5625,0.2020315,0.05497125,949.6000060000001,-21.9211502,-395.032898
5049,5626,0.18569249999999998,0.0564134,949.6000060000001,-26.7925167,-371.1513215
5050,5627,0.162819,0.0544748,949.6000060000001,-31.6638832,-347.26974500000006
5051,5628,0.14603,0.053591799999999995,949.6000060000001,-36.535251599999995,-323.388153
5052,5629,0.12774950000000002,0.05221094999999999,949.6000060000001,-41.406618099999996,-299.5065765
5053,5630,0.1131875,0.051284949999999996,949.6000060000001,-46.277984599999996,-275.625
5054,5631,0.1002887,0.050609150000000006,949.6000060000001,-51.14935299999999,-251.743416
5055,5632,0.09148119999999998,0.05019545,949.6000060000001,-56.0207195,-227.86183949999997
5056,5633,0.0871735,0.05012055,949.6000060000001,-60.89208599999999,-203.98026249999998
5057,5634,0.0883455,0.0503675,949.6000060000001,-65.7634525,-180.09868600000001
5058,5635,0.09444605,0.0507392,949.6000060000001,-70.634819,-156.2171095
5059,5636,0.10556900000000001,0.051697850000000004,949.6000060000001,-75.50618739999999,-132.335529
5060,5637,0.118531,0.05211945,949.6000060000001,-80.377552,-108.45394885000002
5061,5638,0.135796,0.05346265,949.6000060000001,-85.2489166,-84.5723686
5062,5639,0.1510375,0.0521786,949.6000060000001,-90.120285,-60.69078825
5063,5640,0.24731399999999998,0.010093270000000001,924.914276,-2.43568468,-490.559204
5064,5641,0.2435635,0.0253556,924.914276,-7.307051179999999,-466.67762749999997
5065,5642,0.23594499999999996,0.04204265,924.914276,-12.1784177,-442.796051
5066,5643,0.2194205,0.0467168,924.914276,-17.049784199999998,-418.9144745
5067,5644,0.206304,0.05465285,924.914276,-21.9211502,-395.032898
5068,5645,0.18355549999999998,0.05386175,924.914276,-26.7925167,-371.1513215
5069,5646,0.16761399999999999,0.05554485000000001,924.914276,-31.6638832,-347.26974500000006
5070,5647,0.1476445,0.054387,924.914276,-36.535251599999995,-323.388153
5071,5648,0.132359,0.054365949999999996,924.914276,-41.406618099999996,-299.5065765
5072,5649,0.11672350000000001,0.05362354999999999,924.914276,-46.277984599999996,-275.625
5073,5650,0.10514400000000002,0.053392049999999996,924.914276,-51.14935299999999,-251.743416
5074,5651,0.09617735000000001,0.053052449999999994,924.914276,-56.0207195,-227.86183949999997
5075,5652,0.09225565,0.053054649999999995,924.914276,-60.89208599999999,-203.98026249999998
5076,5653,0.09288959999999999,0.05294985,924.914276,-65.7634525,-180.09868600000001
5077,5654,0.099024,0.05332495,924.914276,-70.634819,-156.2171095
5078,5655,0.10838350000000001,0.0531437,924.914276,-75.50618739999999,-132.335529
5079,5656,0.122139,0.053830100000000006,924.914276,-80.377552,-108.45394885000002
5080,5657,0.1358965,0.05282965,924.914276,-85.2489166,-84.5723686
5081,5658,0.151395,0.052439150000000004,924.914276,-90.120285,-60.69078825
5082,5659,0.230512,0.009633195,900.2285764999999,-2.43568468,-490.559204
5083,5660,0.22895,0.026547849999999998,900.2285764999999,-7.307051179999999,-466.67762749999997
5084,5661,0.224038,0.0352027,900.2285764999999,-12.1784177,-442.796051
5085,5662,0.2152985,0.04645945,900.2285764999999,-17.049784199999998,-418.9144745
5086,5663,0.198938,0.048284900000000006,900.2285764999999,-21.9211502,-395.032898
5087,5664,0.184499,0.05363395,900.2285764999999,-26.7925167,-371.1513215
5088,5665,0.165194,0.0536137,900.2285764999999,-31.6638832,-347.26974500000006
5089,5666,0.15015099999999998,0.05544145,900.2285764999999,-36.535251599999995,-323.388153
5090,5667,0.133213,0.05516295,900.2285764999999,-41.406618099999996,-299.5065765
5091,5668,0.1203275,0.0557174,900.2285764999999,-46.277984599999996,-275.625
5092,5669,0.108243,0.0554782,900.2285764999999,-51.14935299999999,-251.743416
5093,5670,0.10064500000000001,0.05564295,900.2285764999999,-56.0207195,-227.86183949999997
5094,5671,0.09624535000000001,0.0553782,900.2285764999999,-60.89208599999999,-203.98026249999998
5095,5672,0.09713585,0.05544595000000001,900.2285764999999,-65.7634525,-180.09868600000001
5096,5673,0.101768,0.05493685,900.2285764999999,-70.634819,-156.2171095
5097,5674,0.111073,0.05496565,900.2285764999999,-75.50618739999999,-132.335529
5098,5675,0.12227450000000001,0.053802,900.2285764999999,-80.377552,-108.45394885000002
5099,5676,0.13634649999999998,0.0535873,900.2285764999999,-85.2489166,-84.5723686
5100,5677,0.1498375,0.05161835000000001,900.2285764999999,-90.120285,-60.69078825
5101,5678,0.21318950000000003,0.0111124,875.5428769999999,-2.43568468,-490.559204
5102,5679,0.216527,0.023331249999999998,875.5428769999999,-7.307051179999999,-466.67762749999997
5103,5680,0.2145825,0.0358,875.5428769999999,-12.1784177,-442.796051
5104,5681,0.20627800000000002,0.039347099999999996,875.5428769999999,-17.049784199999998,-418.9144745
5105,5682,0.19341950000000002,0.04730715,875.5428769999999,-21.9211502,-395.032898
5106,5683,0.178185,0.04946405000000001,875.5428769999999,-26.7925167,-371.1513215
5107,5684,0.164103,0.0537444,875.5428769999999,-31.6638832,-347.26974500000006
5108,5685,0.14790599999999998,0.0547039,875.5428769999999,-36.535251599999995,-323.388153
5109,5686,0.1349965,0.056700099999999996,875.5428769999999,-41.406618099999996,-299.5065765
5110,5687,0.12159900000000001,0.05706765,875.5428769999999,-46.277984599999996,-275.625
5111,5688,0.11211600000000001,0.0579135,875.5428769999999,-51.14935299999999,-251.743416
5112,5689,0.104209,0.05786245,875.5428769999999,-56.0207195,-227.86183949999997
5113,5690,0.1008975,0.05805199999999999,875.5428769999999,-60.89208599999999,-203.98026249999998
5114,5691,0.10065099999999999,0.0575128,875.5428769999999,-65.7634525,-180.09868600000001
5115,5692,0.104993,0.05718505,875.5428769999999,-70.634819,-156.2171095
5116,5693,0.112126,0.055921750000000006,875.5428769999999,-75.50618739999999,-132.335529
5117,5694,0.122435,0.05505170000000001,875.5428769999999,-80.377552,-108.45394885000002
5118,5695,0.13444850000000003,0.0528269,875.5428769999999,-85.2489166,-84.5723686
5119,5696,0.1482085,0.051975400000000005,875.5428769999999,-90.120285,-60.69078825
5120,5697,0.1961385,0.01024075,850.8571469999999,-2.43568468,-490.559204
5121,5698,0.2055825,0.024795900000000003,850.8571469999999,-7.307051179999999,-466.67762749999997
5122,5699,0.2054475,0.02796795,850.8571469999999,-12.1784177,-442.796051
5123,5700,0.19357349999999998,0.037458950000000005,850.8571469999999,-17.049784199999998,-418.9144745
5124,5701,0.1843175,0.0424315,850.8571469999999,-21.9211502,-395.032898
5125,5702,0.1718275,0.04896005,850.8571469999999,-26.7925167,-371.1513215
5126,5703,0.1587285,0.05204465,850.8571469999999,-31.6638832,-347.26974500000006
5127,5704,0.1469545,0.0559467,850.8571469999999,-36.535251599999995,-323.388153
5128,5705,0.13422250000000002,0.05754675000000001,850.8571469999999,-41.406618099999996,-299.5065765
5129,5706,0.124539,0.0595923,850.8571469999999,-46.277984599999996,-275.625
5130,5707,0.115108,0.060189400000000004,850.8571469999999,-51.14935299999999,-251.743416
5131,5708,0.10944400000000001,0.060980450000000005,850.8571469999999,-56.0207195,-227.86183949999997
5132,5709,0.105521,0.060737849999999996,850.8571469999999,-60.89208599999999,-203.98026249999998
5133,5710,0.105611,0.06052344999999999,850.8571469999999,-65.7634525,-180.09868600000001
5134,5711,0.108173,0.059379650000000006,850.8571469999999,-70.634819,-156.2171095
5135,5712,0.11392049999999998,0.05814685,850.8571469999999,-75.50618739999999,-132.335529
5136,5713,0.1220675,0.0559219,850.8571469999999,-80.377552,-108.45394885000002
5137,5714,0.1316535,0.053713,850.8571469999999,-85.2489166,-84.5723686
5138,5715,0.14398499999999997,0.050256300000000004,850.8571469999999,-90.120285,-60.69078825
5139,5716,0.18411,0.0117873,826.171417,-2.43568468,-490.559204
5140,5717,0.19726100000000002,0.01274565,826.171417,-7.307051179999999,-466.67762749999997
5141,5718,0.183968,0.0236993,826.171417,-12.1784177,-442.796051
5142,5719,0.181524,0.0329255,826.171417,-17.049784199999998,-418.9144745
5143,5720,0.171852,0.041429850000000004,826.171417,-21.9211502,-395.032898
5144,5721,0.1636195,0.04749005,826.171417,-26.7925167,-371.1513215
5145,5722,0.154331,0.053439249999999994,826.171417,-31.6638832,-347.26974500000006
5146,5723,0.144223,0.0569133,826.171417,-36.535251599999995,-323.388153
5147,5724,0.13588050000000002,0.06055035,826.171417,-41.406618099999996,-299.5065765
5148,5725,0.126884,0.0622451,826.171417,-46.277984599999996,-275.625
5149,5726,0.12077000000000002,0.06406725,826.171417,-51.14935299999999,-251.743416
5150,5727,0.1150615,0.0644519,826.171417,-56.0207195,-227.86183949999997
5151,5728,0.11258950000000001,0.0648082,826.171417,-60.89208599999999,-203.98026249999998
5152,5729,0.111514,0.06403615,826.171417,-65.7634525,-180.09868600000001
5153,5730,0.11330599999999999,0.06299850000000001,826.171417,-70.634819,-156.2171095
5154,5731,0.11700550000000001,0.06101845,826.171417,-75.50618739999999,-132.335529
5155,5732,0.1222135,0.058406349999999996,826.171417,-80.377552,-108.45394885000002
5156,5733,0.130004,0.055071749999999996,826.171417,-85.2489166,-84.5723686
5157,5734,0.1370355,0.050708600000000006,826.171417,-90.120285,-60.69078825
5158,5735,0.17891200000000002,-0.00900964,801.4857175,-2.43568468,-490.559204
5159,5736,0.163605,0.0031329,801.4857175,-7.307051179999999,-466.67762749999997
5160,5737,0.1670335,0.0208945,801.4857175,-12.1784177,-442.796051
5161,5738,0.163359,0.0316103,801.4857175,-17.049784199999998,-418.9144745
5162,5739,0.1609215,0.04161555,801.4857175,-21.9211502,-395.032898
5163,5740,0.156194,0.049713600000000004,801.4857175,-26.7925167,-371.1513215
5164,5741,0.1502395,0.055556350000000004,801.4857175,-31.6638832,-347.26974500000006
5165,5742,0.14482250000000002,0.0610015,801.4857175,-36.535251599999995,-323.388153
5166,5743,0.1379125,0.06414275,801.4857175,-41.406618099999996,-299.5065765
5167,5744,0.1329565,0.0672889,801.4857175,-46.277984599999996,-275.625
5168,5745,0.1272395,0.06856725,801.4857175,-51.14935299999999,-251.743416
5169,5746,0.12401350000000001,0.069832,801.4857175,-56.0207195,-227.86183949999997
5170,5747,0.12097150000000001,0.06965635,801.4857175,-60.89208599999999,-203.98026249999998
5171,5748,0.12033049999999999,0.0692528,801.4857175,-65.7634525,-180.09868600000001
5172,5749,0.120581,0.06772675,801.4857175,-70.634819,-156.2171095
5173,5750,0.122409,0.06555649999999999,801.4857175,-75.50618739999999,-132.335529
5174,5751,0.12568400000000002,0.0626083,801.4857175,-80.377552,-108.45394885000002
5175,5752,0.12881,0.058169149999999996,801.4857175,-85.2489166,-84.5723686
5176,5753,0.13476100000000002,0.05368775,801.4857175,-90.120285,-60.69078825
5177,5754,0.309231,0.0524819,776.8000180000001,-2.43568468,-490.559204
5178,5755,0.21581050000000002,0.06451725,776.8000180000001,-7.307051179999999,-466.67762749999997
5179,5756,0.179426,0.05109174999999999,776.8000180000001,-12.1784177,-442.796051
5180,5757,0.157653,0.0529504,776.8000180000001,-17.049784199999998,-418.9144745
5181,5758,0.1388545,0.048097749999999995,776.8000180000001,-21.9211502,-395.032898
5182,5759,0.12608850000000002,0.0483098,776.8000180000001,-26.7925167,-371.1513215
5183,5760,0.1129935,0.0456678,776.8000180000001,-31.6638832,-347.26974500000006
5184,5761,0.1032555,0.04536035,776.8000180000001,-36.535251599999995,-323.388153
5185,5762,0.0932022,0.043699749999999996,776.8000180000001,-41.406618099999996,-299.5065765
5186,5763,0.08594555000000001,0.04343105,776.8000180000001,-46.277984599999996,-275.625
5187,5764,0.07917215,0.04250034999999999,776.8000180000001,-51.14935299999999,-251.743416
5188,5765,0.075572,0.04257375000000001,776.8000180000001,-56.0207195,-227.86183949999997
5189,5766,0.07340115000000001,0.04231195,776.8000180000001,-60.89208599999999,-203.98026249999998
5190,5767,0.0747893,0.0428993,776.8000180000001,-65.7634525,-180.09868600000001
5191,5768,0.07782889999999999,0.04324915,776.8000180000001,-70.634819,-156.2171095
5192,5769,0.08416205,0.044514649999999996,776.8000180000001,-75.50618739999999,-132.335529
5193,5770,0.09147374999999999,0.045348150000000004,776.8000180000001,-80.377552,-108.45394885000002
5194,5771,0.10205499999999999,0.04767855,776.8000180000001,-85.2489166,-84.5723686
5195,5772,0.112985,0.048639749999999995,776.8000180000001,-90.120285,-60.69078825
5196,5773,0.2466655,0.0156675,752.1142880000001,-2.43568468,-490.559204
5197,5774,0.23538699999999999,0.05621029999999999,752.1142880000001,-7.307051179999999,-466.67762749999997
5198,5775,0.183781,0.05701275,752.1142880000001,-12.1784177,-442.796051
5199,5776,0.1660245,0.054423799999999994,752.1142880000001,-17.049784199999998,-418.9144745
5200,5777,0.14638,0.0541876,752.1142880000001,-21.9211502,-395.032898
5201,5778,0.13278800000000002,0.051478399999999994,752.1142880000001,-26.7925167,-371.1513215
5202,5779,0.12042800000000001,0.0508416,752.1142880000001,-31.6638832,-347.26974500000006
5203,5780,0.10949400000000001,0.048884,752.1142880000001,-36.535251599999995,-323.388153
5204,5781,0.1004105,0.04832,752.1142880000001,-41.406618099999996,-299.5065765
5205,5782,0.092131,0.0470783,752.1142880000001,-46.277984599999996,-275.625
5206,5783,0.08637504999999998,0.0468524,752.1142880000001,-51.14935299999999,-251.743416
5207,5784,0.0819301,0.046290700000000004,752.1142880000001,-56.0207195,-227.86183949999997
5208,5785,0.08068829999999999,0.046532500000000004,752.1142880000001,-60.89208599999999,-203.98026249999998
5209,5786,0.08128640000000001,0.04661975,752.1142880000001,-65.7634525,-180.09868600000001
5210,5787,0.0851018,0.04741325,752.1142880000001,-70.634819,-156.2171095
5211,5788,0.0906845,0.048105949999999995,752.1142880000001,-75.50618739999999,-132.335529
5212,5789,0.09873085,0.04953595,752.1142880000001,-80.377552,-108.45394885000002
5213,5790,0.108719,0.0507513,752.1142880000001,-85.2489166,-84.5723686
5214,5791,0.11994650000000001,0.05278885,752.1142880000001,-90.120285,-60.69078825
5215,5792,0.210277,0.014006999999999999,727.4285580000001,-2.43568468,-490.559204
5216,5793,0.20215650000000002,0.0330809,727.4285580000001,-7.307051179999999,-466.67762749999997
5217,5794,0.193216,0.0537805,727.4285580000001,-12.1784177,-442.796051
5218,5795,0.1647725,0.054598249999999994,727.4285580000001,-17.049784199999998,-418.9144745
5219,5796,0.15361999999999998,0.055567450000000004,727.4285580000001,-21.9211502,-395.032898
5220,5797,0.1373795,0.0547521,727.4285580000001,-26.7925167,-371.1513215
5221,5798,0.12655149999999998,0.05342050000000001,727.4285580000001,-31.6638832,-347.26974500000006
5222,5799,0.11514949999999999,0.052506750000000005,727.4285580000001,-36.535251599999995,-323.388153
5223,5800,0.105902,0.05122015,727.4285580000001,-41.406618099999996,-299.5065765
5224,5801,0.09796385,0.0506533,727.4285580000001,-46.277984599999996,-275.625
5225,5802,0.09165309999999999,0.0498771,727.4285580000001,-51.14935299999999,-251.743416
5226,5803,0.0878277,0.0497649,727.4285580000001,-56.0207195,-227.86183949999997
5227,5804,0.08596845,0.0495832,727.4285580000001,-60.89208599999999,-203.98026249999998
5228,5805,0.0870902,0.0499343,727.4285580000001,-65.7634525,-180.09868600000001
5229,5806,0.09041045,0.050352400000000005,727.4285580000001,-70.634819,-156.2171095
5230,5807,0.0960758,0.051105,727.4285580000001,-75.50618739999999,-132.335529
5231,5808,0.10410900000000001,0.05206735,727.4285580000001,-80.377552,-108.45394885000002
5232,5809,0.112725,0.052807400000000004,727.4285580000001,-85.2489166,-84.5723686
5233,5810,0.125307,0.054004949999999996,727.4285580000001,-90.120285,-60.69078825
5234,5811,0.18952850000000002,0.01042465,702.7428585,-2.43568468,-490.559204
5235,5812,0.18458999999999998,0.031466999999999995,702.7428585,-7.307051179999999,-466.67762749999997
5236,5813,0.17499900000000002,0.0421207,702.7428585,-12.1784177,-442.796051
5237,5814,0.169403,0.05375335,702.7428585,-17.049784199999998,-418.9144745
5238,5815,0.15159250000000002,0.0544132,702.7428585,-21.9211502,-395.032898
5239,5816,0.142813,0.05597905,702.7428585,-26.7925167,-371.1513215
5240,5817,0.1292615,0.0550797,702.7428585,-31.6638832,-347.26974500000006
5241,5818,0.119977,0.05450895,702.7428585,-36.535251599999995,-323.388153
5242,5819,0.1099495,0.0536979,702.7428585,-41.406618099999996,-299.5065765
5243,5820,0.1024,0.05299514999999999,702.7428585,-46.277984599999996,-275.625
5244,5821,0.09616525000000001,0.052584349999999995,702.7428585,-51.14935299999999,-251.743416
5245,5822,0.0921469,0.052241949999999995,702.7428585,-56.0207195,-227.86183949999997
5246,5823,0.09053264999999999,0.0522258,702.7428585,-60.89208599999999,-203.98026249999998
5247,5824,0.09133635000000001,0.05235329999999999,702.7428585,-65.7634525,-180.09868600000001
5248,5825,0.09448775000000001,0.0526176,702.7428585,-70.634819,-156.2171095
5249,5826,0.1001835,0.05320545,702.7428585,-75.50618739999999,-132.335529
5250,5827,0.10682150000000001,0.0533781,702.7428585,-80.377552,-108.45394885000002
5251,5828,0.11629049999999999,0.0540725,702.7428585,-85.2489166,-84.5723686
5252,5829,0.124087,0.052658899999999995,702.7428585,-90.120285,-60.69078825
5253,5830,0.1682505,0.01077175,678.057159,-2.43568468,-490.559204
5254,5831,0.1683485,0.026312750000000003,678.057159,-7.307051179999999,-466.67762749999997
5255,5832,0.1671515,0.0416635,678.057159,-12.1784177,-442.796051
5256,5833,0.1590835,0.04743385,678.057159,-17.049784199999998,-418.9144745
5257,5834,0.1541635,0.054354450000000006,678.057159,-21.9211502,-395.032898
5258,5835,0.1408815,0.0545866,678.057159,-26.7925167,-371.1513215
5259,5836,0.13280950000000002,0.0559882,678.057159,-31.6638832,-347.26974500000006
5260,5837,0.1213895,0.05533095,678.057159,-36.535251599999995,-323.388153
5261,5838,0.11346149999999999,0.05527135,678.057159,-41.406618099999996,-299.5065765
5262,5839,0.105252,0.05475125,678.057159,-46.277984599999996,-275.625
5263,5840,0.09970489999999999,0.054526,678.057159,-51.14935299999999,-251.743416
5264,5841,0.09558935000000002,0.054279549999999996,678.057159,-56.0207195,-227.86183949999997
5265,5842,0.0940413,0.05424725,678.057159,-60.89208599999999,-203.98026249999998
5266,5843,0.09455285,0.054178250000000004,678.057159,-65.7634525,-180.09868600000001
5267,5844,0.09768195,0.0544098,678.057159,-70.634819,-156.2171095
5268,5845,0.102218,0.0542452,678.057159,-75.50618739999999,-132.335529
5269,5846,0.10930399999999998,0.05458475,678.057159,-80.377552,-108.45394885000002
5270,5847,0.116005,0.0535916,678.057159,-85.2489166,-84.5723686
5271,5848,0.12381800000000001,0.052742449999999996,678.057159,-90.120285,-60.69078825
5272,5849,0.15149200000000002,0.01050645,653.371429,-2.43568468,-490.559204
5273,5850,0.15413749999999998,0.02715455,653.371429,-7.307051179999999,-466.67762749999997
5274,5851,0.15583000000000002,0.0371421,653.371429,-12.1784177,-442.796051
5275,5852,0.155327,0.04730575,653.371429,-17.049784199999998,-418.9144745
5276,5853,0.147564,0.05014830000000001,653.371429,-21.9211502,-395.032898
5277,5854,0.1417325,0.054473299999999995,653.371429,-26.7925167,-371.1513215
5278,5855,0.130805,0.054736850000000004,653.371429,-31.6638832,-347.26974500000006
5279,5856,0.123463,0.056067450000000005,653.371429,-36.535251599999995,-323.388153
5280,5857,0.11418500000000001,0.055832950000000006,653.371429,-41.406618099999996,-299.5065765
5281,5858,0.10797599999999999,0.056173799999999996,653.371429,-46.277984599999996,-275.625
5282,5859,0.101961,0.0559379,653.371429,-51.14935299999999,-251.743416
5283,5860,0.0986644,0.0560231,653.371429,-56.0207195,-227.86183949999997
5284,5861,0.0967266,0.05580355,653.371429,-60.89208599999999,-203.98026249999998
5285,5862,0.09740194999999999,0.0558445,653.371429,-65.7634525,-180.09868600000001
5286,5863,0.09955625,0.0554702,653.371429,-70.634819,-156.2171095
5287,5864,0.1041315,0.0554422,653.371429,-75.50618739999999,-132.335529
5288,5865,0.109324,0.054521,653.371429,-80.377552,-108.45394885000002
5289,5866,0.1162175,0.054054500000000005,653.371429,-85.2489166,-84.5723686
5290,5867,0.12229499999999999,0.05212945000000001,653.371429,-90.120285,-60.69078825
5291,5868,0.133602,0.0116832,628.685699,-2.43568468,-490.559204
5292,5869,0.14182699999999998,0.0256515,628.685699,-7.307051179999999,-466.67762749999997
5293,5870,0.147451,0.03776945,628.685699,-12.1784177,-442.796051
5294,5871,0.1471345,0.042928400000000005,628.685699,-17.049784199999998,-418.9144745
5295,5872,0.14397349999999998,0.049425,628.685699,-21.9211502,-395.032898
5296,5873,0.1363645,0.051461450000000006,628.685699,-26.7925167,-371.1513215
5297,5874,0.130452,0.0547023,628.685699,-31.6638832,-347.26974500000006
5298,5875,0.121647,0.055352250000000006,628.685699,-36.535251599999995,-323.388153
5299,5876,0.115741,0.05678335,628.685699,-41.406618099999996,-299.5065765
5300,5877,0.1088325,0.05693125,628.685699,-46.277984599999996,-275.625
5301,5878,0.104699,0.057521300000000004,628.685699,-51.14935299999999,-251.743416
5302,5879,0.10095,0.05740264999999999,628.685699,-56.0207195,-227.86183949999997
5303,5880,0.09975165,0.0575436,628.685699,-60.89208599999999,-203.98026249999998
5304,5881,0.099593,0.0571189,628.685699,-65.7634525,-180.09868600000001
5305,5882,0.10171749999999999,0.056890449999999995,628.685699,-70.634819,-156.2171095
5306,5883,0.10479050000000001,0.0559538,628.685699,-75.50618739999999,-132.335529
5307,5884,0.10956749999999998,0.055233,628.685699,-80.377552,-108.45394885000002
5308,5885,0.11480199999999999,0.053490249999999996,628.685699,-85.2489166,-84.5723686
5309,5886,0.121017,0.052350850000000004,628.685699,-90.120285,-60.69078825
5310,5887,0.11619750000000001,0.011727150000000002,604.0,-2.43568468,-490.559204
5311,5888,0.13063399999999997,0.027220349999999997,604.0,-7.307051179999999,-466.67762749999997
5312,5889,0.13862000000000002,0.0338841,604.0,-12.1784177,-442.796051
5313,5890,0.1387155,0.0416352,604.0,-17.049784199999998,-418.9144745
5314,5891,0.136195,0.04580405,604.0,-21.9211502,-395.032898
5315,5892,0.13244499999999998,0.0508585,604.0,-26.7925167,-371.1513215
5316,5893,0.126059,0.05305454999999999,604.0,-31.6638832,-347.26974500000006
5317,5894,0.121441,0.055986900000000006,604.0,-36.535251599999995,-323.388153
5318,5895,0.1150225,0.0570003,604.0,-41.406618099999996,-299.5065765
5319,5896,0.111102,0.05851405,604.0,-46.277984599999996,-275.625
5320,5897,0.1065615,0.058821250000000005,604.0,-51.14935299999999,-251.743416
5321,5898,0.104426,0.059417199999999996,604.0,-56.0207195,-227.86183949999997
5322,5899,0.1025445,0.0591613,604.0,-60.89208599999999,-203.98026249999998
5323,5900,0.102772,0.0590349,604.0,-65.7634525,-180.09868600000001
5324,5901,0.10364050000000001,0.05815915,604.0,-70.634819,-156.2171095
5325,5902,0.1060905,0.057274450000000005,604.0,-75.50618739999999,-132.335529
5326,5903,0.10927799999999999,0.055608950000000004,604.0,-80.377552,-108.45394885000002
5327,5904,0.113174,0.05388685,604.0,-85.2489166,-84.5723686
5328,5905,0.11793300000000001,0.0512266,604.0,-90.120285,-60.69078825
5329,5906,0.10001335,0.01341235,579.314301,-2.43568468,-490.559204
5330,5907,0.1201735,0.0222432,579.314301,-7.307051179999999,-466.67762749999997
5331,5908,0.12458250000000001,0.03116435,579.314301,-12.1784177,-442.796051
5332,5909,0.1283435,0.03802375,579.314301,-17.049784199999998,-418.9144745
5333,5910,0.128048,0.0447761,579.314301,-21.9211502,-395.032898
5334,5911,0.125781,0.04907665,579.314301,-26.7925167,-371.1513215
5335,5912,0.12360399999999999,0.05370164999999999,579.314301,-31.6638832,-347.26974500000006
5336,5913,0.119257,0.0560789,579.314301,-36.535251599999995,-323.388153
5337,5914,0.1166605,0.058864549999999995,579.314301,-41.406618099999996,-299.5065765
5338,5915,0.11257,0.059954350000000003,579.314301,-46.277984599999996,-275.625
5339,5916,0.110564,0.06134895,579.314301,-51.14935299999999,-251.743416
5340,5917,0.1079125,0.06151535,579.314301,-56.0207195,-227.86183949999997
5341,5918,0.107159,0.061819,579.314301,-60.89208599999999,-203.98026249999998
5342,5919,0.106373,0.0611714,579.314301,-65.7634525,-180.09868600000001
5343,5920,0.1070325,0.06044965,579.314301,-70.634819,-156.2171095
5344,5921,0.1080255,0.0589277,579.314301,-75.50618739999999,-132.335529
5345,5922,0.109648,0.05703945,579.314301,-80.377552,-108.45394885000002
5346,5923,0.11204299999999999,0.0544982,579.314301,-85.2489166,-84.5723686
5347,5924,0.1137545,0.05127665,579.314301,-90.120285,-60.69078825
5348,5925,0.0837303,0.00409198,554.6285710000001,-2.43568468,-490.559204
5349,5926,0.09789855,0.016264300000000002,554.6285710000001,-7.307051179999999,-466.67762749999997
5350,5927,0.109987,0.0277822,554.6285710000001,-12.1784177,-442.796051
5351,5928,0.1159845,0.03673095,554.6285710000001,-17.049784199999998,-418.9144745
5352,5929,0.119365,0.043758649999999996,554.6285710000001,-21.9211502,-395.032898
5353,5930,0.12136849999999999,0.050274849999999996,554.6285710000001,-26.7925167,-371.1513215
5354,5931,0.12054600000000001,0.054410900000000005,554.6285710000001,-31.6638832,-347.26974500000006
5355,5932,0.120488,0.0586952,554.6285710000001,-36.535251599999995,-323.388153
5356,5933,0.118063,0.060859449999999995,554.6285710000001,-41.406618099999996,-299.5065765
5357,5934,0.1172015,0.06330519999999999,554.6285710000001,-46.277984599999996,-275.625
5358,5935,0.114792,0.06411395,554.6285710000001,-51.14935299999999,-251.743416
5359,5936,0.1140235,0.06511120000000001,554.6285710000001,-56.0207195,-227.86183949999997
5360,5937,0.112446,0.0648725,554.6285710000001,-60.89208599999999,-203.98026249999998
5361,5938,0.11220550000000001,0.0646178,554.6285710000001,-65.7634525,-180.09868600000001
5362,5939,0.11165149999999999,0.0633927,554.6285710000001,-70.634819,-156.2171095
5363,5940,0.111789,0.06182805000000001,554.6285710000001,-75.50618739999999,-132.335529
5364,5941,0.1119865,0.05952035,554.6285710000001,-80.377552,-108.45394885000002
5365,5942,0.11172200000000002,0.05631024999999999,554.6285710000001,-85.2489166,-84.5723686
5366,5943,0.1121975,0.05274425,554.6285710000001,-90.120285,-60.69078825
5367,5944,0.2147985,0.0409718,529.942841,-2.43568468,-490.559204
5368,5945,0.148199,0.0527091,529.942841,-7.307051179999999,-466.67762749999997
5369,5946,0.1221685,0.04540355,529.942841,-12.1784177,-442.796051
5370,5947,0.11148349999999999,0.048923850000000005,529.942841,-17.049784199999998,-418.9144745
5371,5948,0.101577,0.047258049999999996,529.942841,-21.9211502,-395.032898
5372,5949,0.0981128,0.0490725,529.942841,-26.7925167,-371.1513215
5373,5950,0.09333215,0.048482449999999996,529.942841,-31.6638832,-347.26974500000006
5374,5951,0.09166935000000001,0.0493942,529.942841,-36.535251599999995,-323.388153
5375,5952,0.0888413,0.0490081,529.942841,-41.406618099999996,-299.5065765
5376,5953,0.08791365,0.04947385,529.942841,-46.277984599999996,-275.625
5377,5954,0.0862107,0.0491619,529.942841,-51.14935299999999,-251.743416
5378,5955,0.08602645,0.049487649999999994,529.942841,-56.0207195,-227.86183949999997
5379,5956,0.08531735,0.04925275,529.942841,-60.89208599999999,-203.98026249999998
5380,5957,0.08608435,0.0496196,529.942841,-65.7634525,-180.09868600000001
5381,5958,0.08635535,0.04943435,529.942841,-70.634819,-156.2171095
5382,5959,0.0883164,0.04996265,529.942841,-75.50618739999999,-132.335529
5383,5960,0.08960565000000001,0.049732799999999994,529.942841,-80.377552,-108.45394885000002
5384,5961,0.09335995,0.05064515,529.942841,-85.2489166,-84.5723686
5385,5962,0.09613,0.0501362,529.942841,-90.120285,-60.69078825
5386,5963,0.1641535,0.01561585,505.25712599999997,-2.43568468,-490.559204
5387,5964,0.157989,0.04793915,505.25712599999997,-7.307051179999999,-466.67762749999997
5388,5965,0.125297,0.05057755,505.25712599999997,-12.1784177,-442.796051
5389,5966,0.11561650000000001,0.050492300000000004,505.25712599999997,-17.049784199999998,-418.9144745
5390,5967,0.10747849999999999,0.05198875,505.25712599999997,-21.9211502,-395.032898
5391,5968,0.1020335,0.051388500000000004,505.25712599999997,-26.7925167,-371.1513215
5392,5969,0.09881010000000001,0.0521273,505.25712599999997,-31.6638832,-347.26974500000006
5393,5970,0.0954096,0.051610050000000005,505.25712599999997,-36.535251599999995,-323.388153
5394,5971,0.09365715,0.05193945,505.25712599999997,-41.406618099999996,-299.5065765
5395,5972,0.09142035,0.051517450000000006,505.25712599999997,-46.277984599999996,-275.625
5396,5973,0.0905883,0.0517237,505.25712599999997,-51.14935299999999,-251.743416
5397,5974,0.08938925,0.051434200000000006,505.25712599999997,-56.0207195,-227.86183949999997
5398,5975,0.08954195000000001,0.0516925,505.25712599999997,-60.89208599999999,-203.98026249999998
5399,5976,0.08942195,0.05154145,505.25712599999997,-65.7634525,-180.09868600000001
5400,5977,0.0906865,0.0519404,505.25712599999997,-70.634819,-156.2171095
5401,5978,0.09169764999999999,0.05188285,505.25712599999997,-75.50618739999999,-132.335529
5402,5979,0.09422595,0.05246235,505.25712599999997,-80.377552,-108.45394885000002
5403,5980,0.0967365,0.05243025,505.25712599999997,-85.2489166,-84.5723686
5404,5981,0.100843,0.0531233,505.25712599999997,-90.120285,-60.69078825
5405,5982,0.1333605,0.01393605,480.5714264999999,-2.43568468,-490.559204
5406,5983,0.129166,0.031616599999999995,480.5714264999999,-7.307051179999999,-466.67762749999997
5407,5984,0.128635,0.04880215,480.5714264999999,-12.1784177,-442.796051
5408,5985,0.1142825,0.05127205,480.5714264999999,-17.049784199999998,-418.9144745
5409,5986,0.11125099999999999,0.05343919999999999,480.5714264999999,-21.9211502,-395.032898
5410,5987,0.10574549999999999,0.0541603,480.5714264999999,-26.7925167,-371.1513215
5411,5988,0.10266,0.0541669,480.5714264999999,-31.6638832,-347.26974500000006
5412,5989,0.09969035000000001,0.05428495,480.5714264999999,-36.535251599999995,-323.388153
5413,5990,0.09713440000000001,0.053885600000000006,480.5714264999999,-41.406618099999996,-299.5065765
5414,5991,0.09540245,0.05386955,480.5714264999999,-46.277984599999996,-275.625
5415,5992,0.0937056,0.05351085,480.5714264999999,-51.14935299999999,-251.743416
5416,5993,0.09308759999999999,0.05357805,480.5714264999999,-56.0207195,-227.86183949999997
5417,5994,0.09248065,0.05338925,480.5714264999999,-60.89208599999999,-203.98026249999998
5418,5995,0.09301055,0.0536094,480.5714264999999,-65.7634525,-180.09868600000001
5419,5996,0.09358565,0.05358365,480.5714264999999,-70.634819,-156.2171095
5420,5997,0.09519715000000001,0.053906850000000006,480.5714264999999,-75.50618739999999,-132.335529
5421,5998,0.09702115,0.0539379,480.5714264999999,-80.377552,-108.45394885000002
5422,5999,0.09941040000000001,0.0540278,480.5714264999999,-85.2489166,-84.5723686
5423,6000,0.103004,0.053858149999999994,480.5714264999999,-90.120285,-60.69078825
5424,6001,0.11365600000000001,0.01112635,455.88571199999996,-2.43568468,-490.559204
5425,6002,0.1136995,0.0299611,455.88571199999996,-7.307051179999999,-466.67762749999997
5426,6003,0.1121285,0.040666999999999995,455.88571199999996,-12.1784177,-442.796051
5427,6004,0.11557900000000002,0.05104635,455.88571199999996,-17.049784199999998,-418.9144745
5428,6005,0.10953549999999998,0.0532271,455.88571199999996,-21.9211502,-395.032898
5429,6006,0.108973,0.055524899999999995,455.88571199999996,-26.7925167,-371.1513215
5430,6007,0.1050105,0.05576400000000001,455.88571199999996,-31.6638832,-347.26974500000006
5431,6008,0.10293150000000001,0.0559338,455.88571199999996,-36.535251599999995,-323.388153
5432,6009,0.10022149999999999,0.05572439999999999,455.88571199999996,-41.406618099999996,-299.5065765
5433,6010,0.0982508,0.055438,455.88571199999996,-46.277984599999996,-275.625
5434,6011,0.09674035,0.0552755,455.88571199999996,-51.14935299999999,-251.743416
5435,6012,0.0956411,0.0550444,455.88571199999996,-56.0207195,-227.86183949999997
5436,6013,0.09536315000000001,0.0550534,455.88571199999996,-60.89208599999999,-203.98026249999998
5437,6014,0.0954219,0.054991399999999996,455.88571199999996,-65.7634525,-180.09868600000001
5438,6015,0.09625589999999998,0.05511355,455.88571199999996,-70.634819,-156.2171095
5439,6016,0.09744525,0.055125049999999995,455.88571199999996,-75.50618739999999,-132.335529
5440,6017,0.0989363,0.05503625,455.88571199999996,-80.377552,-108.45394885000002
5441,6018,0.1009025,0.0547017,455.88571199999996,-85.2489166,-84.5723686
5442,6019,0.1018815,0.053241949999999996,455.88571199999996,-90.120285,-60.69078825
5443,6020,0.094341,0.01102525,431.199997,-2.43568468,-490.559204
5444,6021,0.09843265000000001,0.0261001,431.199997,-7.307051179999999,-466.67762749999997
5445,6022,0.105044,0.040185849999999995,431.199997,-12.1784177,-442.796051
5446,6023,0.106465,0.04701905,431.199997,-17.049784199999998,-418.9144745
5447,6024,0.1107975,0.053711800000000004,431.199997,-21.9211502,-395.032898
5448,6025,0.1077225,0.055112049999999996,431.199997,-26.7925167,-371.1513215
5449,6026,0.1075245,0.056852599999999996,431.199997,-31.6638832,-347.26974500000006
5450,6027,0.104279,0.0567526,431.199997,-36.535251599999995,-323.388153
5451,6028,0.102601,0.056916549999999996,431.199997,-41.406618099999996,-299.5065765
5452,6029,0.100263,0.05660165,431.199997,-46.277984599999996,-275.625
5453,6030,0.09885150000000001,0.056446800000000005,431.199997,-51.14935299999999,-251.743416
5454,6031,0.0977385,0.05625809999999999,431.199997,-56.0207195,-227.86183949999997
5455,6032,0.09729175,0.0561662,431.199997,-60.89208599999999,-203.98026249999998
5456,6033,0.09736625,0.056107199999999996,431.199997,-65.7634525,-180.09868600000001
5457,6034,0.09800204999999998,0.05609055,431.199997,-70.634819,-156.2171095
5458,6035,0.09887884999999999,0.055933250000000004,431.199997,-75.50618739999999,-132.335529
5459,6036,0.10013549999999999,0.05565375,431.199997,-80.377552,-108.45394885000002
5460,6037,0.1008525,0.054711300000000004,431.199997,-85.2489166,-84.5723686
5461,6038,0.10077649999999999,0.052910700000000005,431.199997,-90.120285,-60.69078825
5462,6039,0.07857030000000001,0.0106687,406.514282,-2.43568468,-490.559204
5463,6040,0.08597325,0.02639175,406.514282,-7.307051179999999,-466.67762749999997
5464,6041,0.09487404999999999,0.037405499999999994,406.514282,-12.1784177,-442.796051
5465,6042,0.10395399999999999,0.047379149999999995,406.514282,-17.049784199999998,-418.9144745
5466,6043,0.1057545,0.0514196,406.514282,-21.9211502,-395.032898
5467,6044,0.10885800000000001,0.0556296,406.514282,-26.7925167,-371.1513215
5468,6045,0.106422,0.0562612,406.514282,-31.6638832,-347.26974500000006
5469,6046,0.10586949999999999,0.057424649999999994,406.514282,-36.535251599999995,-323.388153
5470,6047,0.1031415,0.0572101,406.514282,-41.406618099999996,-299.5065765
5471,6048,0.10181699999999999,0.05739145,406.514282,-46.277984599999996,-275.625
5472,6049,0.1000067,0.057111150000000006,406.514282,-51.14935299999999,-251.743416
5473,6050,0.09920845,0.0570906,406.514282,-56.0207195,-227.86183949999997
5474,6051,0.09855105,0.0568932,406.514282,-60.89208599999999,-203.98026249999998
5475,6052,0.09868795,0.05686764999999999,406.514282,-65.7634525,-180.09868600000001
5476,6053,0.09897085,0.05663845,406.514282,-70.634819,-156.2171095
5477,6054,0.09981975,0.056453,406.514282,-75.50618739999999,-132.335529
5478,6055,0.10037650000000001,0.0558109,406.514282,-80.377552,-108.45394885000002
5479,6056,0.1006615,0.0547399,406.514282,-85.2489166,-84.5723686
5480,6057,0.1002438,0.05297705,406.514282,-90.120285,-60.69078825
5481,6058,0.0621132,0.01128775,381.82856749999996,-2.43568468,-490.559204
5482,6059,0.07498740000000001,0.025931449999999998,381.82856749999996,-7.307051179999999,-466.67762749999997
5483,6060,0.08931694999999999,0.03842065,381.82856749999996,-12.1784177,-442.796051
5484,6061,0.0978936,0.0453817,381.82856749999996,-17.049784199999998,-418.9144745
5485,6062,0.10500499999999999,0.05181265,381.82856749999996,-21.9211502,-395.032898
5486,6063,0.10546549999999999,0.053834200000000006,381.82856749999996,-26.7925167,-371.1513215
5487,6064,0.1068055,0.0563983,381.82856749999996,-31.6638832,-347.26974500000006
5488,6065,0.1046215,0.056694049999999996,381.82856749999996,-36.535251599999995,-323.388153
5489,6066,0.1039305,0.05754685000000001,381.82856749999996,-41.406618099999996,-299.5065765
5490,6067,0.1018385,0.0574012,381.82856749999996,-46.277984599999996,-275.625
5491,6068,0.101013,0.0576508,381.82856749999996,-51.14935299999999,-251.743416
5492,6069,0.0997942,0.05743105,381.82856749999996,-56.0207195,-227.86183949999997
5493,6070,0.0995717,0.0574813,381.82856749999996,-60.89208599999999,-203.98026249999998
5494,6071,0.09926315,0.057198,381.82856749999996,-65.7634525,-180.09868600000001
5495,6072,0.09971585,0.0570772,381.82856749999996,-70.634819,-156.2171095
5496,6073,0.09994839999999999,0.056542949999999995,381.82856749999996,-75.50618739999999,-132.335529
5497,6074,0.10044550000000001,0.0559251,381.82856749999996,-80.377552,-108.45394885000002
5498,6075,0.1003925,0.0547694,381.82856749999996,-85.2489166,-84.5723686
5499,6076,0.09926285,0.05283524999999999,381.82856749999996,-90.120285,-60.69078825
5500,6077,0.046928849999999994,0.0118941,357.142853,-2.43568468,-490.559204
5501,6078,0.0667782,0.027697500000000003,357.142853,-7.307051179999999,-466.67762749999997
5502,6079,0.08334620000000001,0.037883150000000004,357.142853,-12.1784177,-442.796051
5503,6080,0.09582874999999999,0.046257099999999995,357.142853,-17.049784199999998,-418.9144745
5504,6081,0.1005955,0.049734350000000004,357.142853,-21.9211502,-395.032898
5505,6082,0.104233,0.053574399999999994,357.142853,-26.7925167,-371.1513215
5506,6083,0.103857,0.0547935,357.142853,-31.6638832,-347.26974500000006
5507,6084,0.1043405,0.05656785,357.142853,-36.535251599999995,-323.388153
5508,6085,0.1027005,0.05688385,357.142853,-41.406618099999996,-299.5065765
5509,6086,0.1023095,0.05765515,357.142853,-46.277984599999996,-275.625
5510,6087,0.100927,0.05761915,357.142853,-51.14935299999999,-251.743416
5511,6088,0.1006415,0.05790989999999999,357.142853,-56.0207195,-227.86183949999997
5512,6089,0.09989565,0.05766875,357.142853,-60.89208599999999,-203.98026249999998
5513,6090,0.1000211,0.05764825,357.142853,-65.7634525,-180.09868600000001
5514,6091,0.0998039,0.0571487,357.142853,-70.634819,-156.2171095
5515,6092,0.100146,0.05673240000000001,357.142853,-75.50618739999999,-132.335529
5516,6093,0.10002185,0.05580135,357.142853,-80.377552,-108.45394885000002
5517,6094,0.09977795,0.0546483,357.142853,-85.2489166,-84.5723686
5518,6095,0.09880795,0.0530269,357.142853,-90.120285,-60.69078825
5519,6096,0.0327288,0.0132229,332.457138,-2.43568468,-490.559204
5520,6097,0.060288299999999996,0.028715400000000002,332.457138,-7.307051179999999,-466.67762749999997
5521,6098,0.08126375,0.0398208,332.457138,-12.1784177,-442.796051
5522,6099,0.09122565,0.044426150000000005,332.457138,-17.049784199999998,-418.9144745
5523,6100,0.09746785,0.04914565,332.457138,-21.9211502,-395.032898
5524,6101,0.10001745000000001,0.05152195,332.457138,-26.7925167,-371.1513215
5525,6102,0.10214300000000001,0.05425695,332.457138,-31.6638832,-347.26974500000006
5526,6103,0.101924,0.05539165,332.457138,-36.535251599999995,-323.388153
5527,6104,0.1025075,0.0569116,332.457138,-41.406618099999996,-299.5065765
5528,6105,0.10159699999999999,0.057335449999999996,332.457138,-46.277984599999996,-275.625
5529,6106,0.1016925,0.0580805,332.457138,-51.14935299999999,-251.743416
5530,6107,0.1008745,0.058056250000000004,332.457138,-56.0207195,-227.86183949999997
5531,6108,0.10093099999999999,0.058265,332.457138,-60.89208599999999,-203.98026249999998
5532,6109,0.1003605,0.05785555,332.457138,-65.7634525,-180.09868600000001
5533,6110,0.1004325,0.0575754,332.457138,-70.634819,-156.2171095
5534,6111,0.09994139999999999,0.05672065,332.457138,-75.50618739999999,-132.335529
5535,6112,0.09971775,0.055843300000000005,332.457138,-80.377552,-108.45394885000002
5536,6113,0.09884114999999999,0.054429099999999994,332.457138,-85.2489166,-84.5723686
5537,6114,0.09752274999999999,0.0527001,332.457138,-90.120285,-60.69078825
5538,6115,0.02571825,0.014764950000000002,307.771423,-2.43568468,-490.559204
5539,6116,0.0601218,0.03222705,307.771423,-7.307051179999999,-466.67762749999997
5540,6117,0.07644455,0.038,307.771423,-12.1784177,-442.796051
5541,6118,0.08555750000000001,0.04315525,307.771423,-17.049784199999998,-418.9144745
5542,6119,0.09213035,0.046958799999999995,307.771423,-21.9211502,-395.032898
5543,6120,0.0965538,0.0506206,307.771423,-26.7925167,-371.1513215
5544,6121,0.0987972,0.05291125,307.771423,-31.6638832,-347.26974500000006
5545,6122,0.10099949999999999,0.05534245,307.771423,-36.535251599999995,-323.388153
5546,6123,0.101357,0.05652275,307.771423,-41.406618099999996,-299.5065765
5547,6124,0.1023805,0.05793410000000001,307.771423,-46.277984599999996,-275.625
5548,6125,0.102024,0.058342649999999996,307.771423,-51.14935299999999,-251.743416
5549,6126,0.10242699999999999,0.058961349999999996,307.771423,-56.0207195,-227.86183949999997
5550,6127,0.10182,0.0587785,307.771423,-60.89208599999999,-203.98026249999998
5551,6128,0.101827,0.05872655,307.771423,-65.7634525,-180.09868600000001
5552,6129,0.1010245,0.0579871,307.771423,-70.634819,-156.2171095
5553,6130,0.100555,0.0572552,307.771423,-75.50618739999999,-132.335529
5554,6131,0.09932849999999999,0.0558986,307.771423,-80.377552,-108.45394885000002
5555,6132,0.09800195,0.05438565,307.771423,-85.2489166,-84.5723686
5556,6133,0.09577905,0.05231430000000001,307.771423,-90.120285,-60.69078825
5557,6134,0.0381164,0.0182128,283.0857085,-2.43568468,-490.559204
5558,6135,0.054344149999999994,0.02975395,283.0857085,-7.307051179999999,-466.67762749999997
5559,6136,0.06644615000000001,0.03483915,283.0857085,-12.1784177,-442.796051
5560,6137,0.07884605,0.040941950000000005,283.0857085,-17.049784199999998,-418.9144745
5561,6138,0.0868753,0.0456993,283.0857085,-21.9211502,-395.032898
5562,6139,0.0927014,0.0495334,283.0857085,-26.7925167,-371.1513215
5563,6140,0.09740884999999999,0.053046949999999995,283.0857085,-31.6638832,-347.26974500000006
5564,6141,0.09984025,0.055245550000000004,283.0857085,-36.535251599999995,-323.388153
5565,6142,0.102403,0.057498350000000004,283.0857085,-41.406618099999996,-299.5065765
5566,6143,0.1030755,0.05853309999999999,283.0857085,-46.277984599999996,-275.625
5567,6144,0.1042875,0.05972985,283.0857085,-51.14935299999999,-251.743416
5568,6145,0.10405249999999999,0.0599214,283.0857085,-56.0207195,-227.86183949999997
5569,6146,0.1043645,0.060245999999999994,283.0857085,-60.89208599999999,-203.98026249999998
5570,6147,0.103546,0.0597384,283.0857085,-65.7634525,-180.09868600000001
5571,6148,0.1030605,0.059252650000000004,283.0857085,-70.634819,-156.2171095
5572,6149,0.1016,0.058042199999999995,283.0857085,-75.50618739999999,-132.335529
5573,6150,0.1000743,0.056676050000000006,283.0857085,-80.377552,-108.45394885000002
5574,6151,0.09756455,0.05464985,283.0857085,-85.2489166,-84.5723686
5575,6152,0.0943437,0.05221895,283.0857085,-90.120285,-60.69078825
5576,6153,0.0925173,0.031155099999999998,258.40000150000003,-2.43568468,-490.559204
5577,6154,0.08674455,0.048440750000000005,258.40000150000003,-7.307051179999999,-466.67762749999997
5578,6155,0.0851488,0.048381049999999995,258.40000150000003,-12.1784177,-442.796051
5579,6156,0.09212275,0.0528336,258.40000150000003,-17.049784199999998,-418.9144745
5580,6157,0.08918209999999999,0.05110045,258.40000150000003,-21.9211502,-395.032898
5581,6158,0.09052905,0.051996650000000005,258.40000150000003,-26.7925167,-371.1513215
5582,6159,0.08907999999999999,0.0511988,258.40000150000003,-31.6638832,-347.26974500000006
5583,6160,0.0894587,0.05149405,258.40000150000003,-36.535251599999995,-323.388153
5584,6161,0.0888902,0.05121165,258.40000150000003,-41.406618099999996,-299.5065765
5585,6162,0.08900415,0.0513234,258.40000150000003,-46.277984599999996,-275.625
5586,6163,0.08877535,0.0512218,258.40000150000003,-51.14935299999999,-251.743416
5587,6164,0.0888336,0.0512769,258.40000150000003,-56.0207195,-227.86183949999997
5588,6165,0.08874225,0.05123405,258.40000150000003,-60.89208599999999,-203.98026249999998
5589,6166,0.08885455,0.051297949999999995,258.40000150000003,-65.7634525,-180.09868600000001
5590,6167,0.0888173,0.0512643,258.40000150000003,-70.634819,-156.2171095
5591,6168,0.08911215,0.05141325000000001,258.40000150000003,-75.50618739999999,-132.335529
5592,6169,0.0890511,0.05134365,258.40000150000003,-80.377552,-108.45394885000002
5593,6170,0.08968925,0.051679050000000004,258.40000150000003,-85.2489166,-84.5723686
5594,6171,0.08892695,0.05117245,258.40000150000003,-90.120285,-60.69078825
5595,6172,0.050326100000000006,0.020670149999999998,233.71428650000001,-2.43568468,-490.559204
5596,6173,0.08859964999999999,0.049389,233.71428650000001,-7.307051179999999,-466.67762749999997
5597,6174,0.09480985,0.054423700000000005,233.71428650000001,-12.1784177,-442.796051
5598,6175,0.09192539999999999,0.05249435,233.71428650000001,-17.049784199999998,-418.9144745
5599,6176,0.09147634999999998,0.05250665,233.71428650000001,-21.9211502,-395.032898
5600,6177,0.09026780000000001,0.0517765,233.71428650000001,-26.7925167,-371.1513215
5601,6178,0.09031305,0.05193575,233.71428650000001,-31.6638832,-347.26974500000006
5602,6179,0.0899198,0.05174425,233.71428650000001,-36.535251599999995,-323.388153
5603,6180,0.08992865,0.05181815000000001,233.71428650000001,-41.406618099999996,-299.5065765
5604,6181,0.08975245,0.05175265,233.71428650000001,-46.277984599999996,-275.625
5605,6182,0.08974295,0.05178205,233.71428650000001,-51.14935299999999,-251.743416
5606,6183,0.0896648,0.051756899999999995,233.71428650000001,-56.0207195,-227.86183949999997
5607,6184,0.08968275,0.051777399999999994,233.71428650000001,-60.89208599999999,-203.98026249999998
5608,6185,0.08966055,0.0517634,233.71428650000001,-65.7634525,-180.09868600000001
5609,6186,0.08974435,0.051800299999999994,233.71428650000001,-70.634819,-156.2171095
5610,6187,0.0897656,0.05178705,233.71428650000001,-75.50618739999999,-132.335529
5611,6188,0.09003305,0.051913749999999995,233.71428650000001,-80.377552,-108.45394885000002
5612,6189,0.09024335,0.051979300000000006,233.71428650000001,-85.2489166,-84.5723686
5613,6190,0.09100145000000001,0.05239485,233.71428650000001,-90.120285,-60.69078825
5614,6191,0.0361928,0.020701249999999997,209.028572,-2.43568468,-490.559204
5615,6192,0.082015,0.04686025,209.028572,-7.307051179999999,-466.67762749999997
5616,6193,0.0951802,0.0539197,209.028572,-12.1784177,-442.796051
5617,6194,0.0911791,0.05222985,209.028572,-17.049784199999998,-418.9144745
5618,6195,0.09183995,0.0525456,209.028572,-21.9211502,-395.032898
5619,6196,0.09053565,0.0520032,209.028572,-26.7925167,-371.1513215
5620,6197,0.09094525,0.05226325,209.028572,-31.6638832,-347.26974500000006
5621,6198,0.090565,0.0521375,209.028572,-36.535251599999995,-323.388153
5622,6199,0.09068970000000001,0.05224925,209.028572,-41.406618099999996,-299.5065765
5623,6200,0.0905289,0.052205650000000006,209.028572,-46.277984599999996,-275.625
5624,6201,0.09054915,0.05224625000000001,209.028572,-51.14935299999999,-251.743416
5625,6202,0.09047369999999999,0.052224450000000006,209.028572,-56.0207195,-227.86183949999997
5626,6203,0.09048615,0.052241300000000004,209.028572,-60.89208599999999,-203.98026249999998
5627,6204,0.09044379999999999,0.05221585,209.028572,-65.7634525,-180.09868600000001
5628,6205,0.09049019999999999,0.052229899999999996,209.028572,-70.634819,-156.2171095
5629,6206,0.090438,0.0521789,209.028572,-75.50618739999999,-132.335529
5630,6207,0.09061374999999999,0.0522392,209.028572,-80.377552,-108.45394885000002
5631,6208,0.09057805,0.05218289999999999,209.028572,-85.2489166,-84.5723686
5632,6209,0.09130964999999999,0.052509150000000004,209.028572,-90.120285,-60.69078825
5633,6210,0.061886949999999996,0.02657765,184.34285749999998,-2.4356840876332786,-490.559204
5634,6211,0.07778090000000001,0.04469085,184.34285749999998,-7.307050825,-466.67762749999997
5635,6212,0.0818181,0.04670845,184.34285749999998,-12.178417465,-442.796051
5636,6213,0.09191565000000002,0.0525043,184.34285749999998,-17.049784199999998,-418.9144745
5637,6214,0.0897264,0.05144014999999999,184.34285749999998,-21.921150675,-395.032898
5638,6215,0.09198110000000001,0.052796,184.34285749999998,-26.792517175,-371.1513215
5639,6216,0.09088959999999999,0.05226394999999999,184.34285749999998,-31.663883675,-347.26974500000006
5640,6217,0.0915916,0.05272055,184.34285749999998,-36.535251599999995,-323.388153
5641,6218,0.09116905,0.05253435000000001,184.34285749999998,-41.406618099999996,-299.5065765
5642,6219,0.09139059999999999,0.0527011,184.34285749999998,-46.277984599999996,-275.625
5643,6220,0.0912075,0.05262765,184.34285749999998,-51.14935299999999,-251.743416
5644,6221,0.0912828,0.05269114999999999,184.34285749999998,-56.0207195,-227.86183949999997
5645,6222,0.09117585,0.0526392,184.34285749999998,-60.89208599999999,-203.98026249999998
5646,6223,0.09123775,0.052674,184.34285749999998,-65.7634525,-180.09868600000001
5647,6224,0.0911013,0.0525839,184.34285749999998,-70.634819,-156.2171095
5648,6225,0.09123155,0.052635749999999995,184.34285749999998,-75.50618739999999,-132.335529
5649,6226,0.09087044999999999,0.05239614999999999,184.34285749999998,-80.377553925,-108.45394885000002
5650,6227,0.0910917,0.05247254999999999,184.34285749999998,-85.248918525,-84.5723686
5651,6228,0.0894824,0.051499600000000006,184.34285749999998,-90.120285,-60.69078825
5652,6509,0.00155152,-0.000130644,159.714287,100.0139923,-12.1875
5653,6510,0.0009798950000000002,-0.0002813625,159.714287,95.04197690000001,-36.5625
5654,6511,0.00119932,-2.054354e-05,135.142857,100.0139923,-12.1875
5655,6512,0.00103009,-0.00028770049999999995,135.142857,95.04197690000001,-36.5625
5656,6513,0.0009021125,6.001085e-05,110.5714266,100.0139923,-12.1875
5657,6514,0.000827489,-0.00018582050000000001,110.5714266,95.04197690000001,-36.5625
5658,6515,0.000623859,9.919980000000001e-05,86.0,100.0139923,-12.1875
5659,6516,0.0006383945,-0.0001549165,86.0,95.04197690000001,-36.5625
5660,6517,0.000352787,0.00010594865,61.428571700000006,100.0139923,-12.1875
5661,6518,0.00046111650000000003,-0.00014311,61.428571700000006,95.04197690000001,-36.5625
5662,6519,0.0001671045,7.83046e-05,36.857142450000005,100.0139923,-12.1875
5663,6520,0.0004096865,-0.0001968925,36.857142450000005,95.04197690000001,-36.5625
5664,6521,0.00039930299999999994,1.0777629999999999e-05,12.28571415,100.0139923,-12.1875
5665,6522,0.00036034,-0.00016545900000000002,12.28571415,95.04197690000001,-36.5625
5666,6523,0.1578965,0.054466,1023.6571349999999,-95.0419769,-36.5625
5667,6524,0.191784,0.05323074999999999,1023.6571349999999,-100.01399229999998,-12.1875
5668,6525,0.17066599999999998,0.05568580000000001,998.9714355,-95.0419769,-36.5625
5669,6526,0.187138,0.051987649999999996,998.9714355,-100.01399229999998,-12.1875
5670,6527,0.16856749999999998,0.0518419,974.285736,-95.0419769,-36.5625
5671,6528,0.183952,0.04789515,974.285736,-100.01399229999998,-12.1875
5672,6529,0.1670345,0.0504776,949.6000060000001,-95.0419769,-36.5625
5673,6530,0.179814,0.0467583,949.6000060000001,-100.01399229999998,-12.1875
5674,6531,0.1646,0.04971465,924.914276,-95.0419769,-36.5625
5675,6532,0.17775249999999998,0.046766100000000005,924.914276,-100.01399229999998,-12.1875
5676,6533,0.163432,0.05032185,900.2285764999999,-95.0419769,-36.5625
5677,6534,0.1745665,0.046858449999999996,900.2285764999999,-100.01399229999998,-12.1875
5678,6535,0.160967,0.04959615,875.5428769999999,-95.0419769,-36.5625
5679,6536,0.172289,0.0475911,875.5428769999999,-100.01399229999998,-12.1875
5680,6537,0.15765649999999998,0.049266149999999995,850.8571469999999,-95.0419769,-36.5625
5681,6538,0.16769,0.04620695,850.8571469999999,-100.01399229999998,-12.1875
5682,6539,0.150175,0.0455167,826.171417,-95.0419769,-36.5625
5683,6540,0.161644,0.0450352,826.171417,-100.01399229999998,-12.1875
5684,6541,0.137132,0.04531640000000001,801.4857175,-95.0419769,-36.5625
5685,6542,0.15479900000000002,0.040490399999999996,801.4857175,-100.01399229999998,-12.1875
5686,6543,0.12956499999999999,0.05362635,776.8000180000001,-95.0419769,-36.5625
5687,6544,0.151513,0.0515458,776.8000180000001,-100.01399229999998,-12.1875
5688,6545,0.137606,0.05465225,752.1142880000001,-95.0419769,-36.5625
5689,6546,0.14719949999999998,0.050969099999999996,752.1142880000001,-100.01399229999998,-12.1875
5690,6547,0.1346215,0.051773700000000006,727.4285580000001,-95.0419769,-36.5625
5691,6548,0.14252700000000001,0.047498,727.4285580000001,-100.01399229999998,-12.1875
5692,6549,0.13227899999999998,0.050542050000000005,702.7428585,-95.0419769,-36.5625
5693,6550,0.13820500000000002,0.0466183,702.7428585,-100.01399229999998,-12.1875
5694,6551,0.1297565,0.04991155,678.057159,-95.0419769,-36.5625
5695,6552,0.1355575,0.046420550000000005,678.057159,-100.01399229999998,-12.1875
5696,6553,0.12835800000000003,0.050261349999999996,653.371429,-95.0419769,-36.5625
5697,6554,0.13223400000000002,0.04642145,653.371429,-100.01399229999998,-12.1875
5698,6555,0.12595849999999997,0.04975865,628.685699,-95.0419769,-36.5625
5699,6556,0.12996049999999998,0.0469914,628.685699,-100.01399229999998,-12.1875
5700,6557,0.12340299999999998,0.04971285,604.0,-95.0419769,-36.5625
5701,6558,0.125452,0.0460157,604.0,-100.01399229999998,-12.1875
5702,6559,0.117669,0.04732855,579.314301,-95.0419769,-36.5625
5703,6560,0.1209755,0.04575315,579.314301,-100.01399229999998,-12.1875
5704,6561,0.109747,0.046884499999999996,554.6285710000001,-95.0419769,-36.5625
5705,6562,0.11376549999999999,0.04230225,554.6285710000001,-100.01399229999998,-12.1875
5706,6563,0.104104,0.0524115,529.942841,-95.0419769,-36.5625
5707,6564,0.11257400000000001,0.04933135,529.942841,-100.01399229999998,-12.1875
5708,6565,0.1075625,0.053231549999999996,505.25712599999997,-95.0419769,-36.5625
5709,6566,0.109674,0.04960825,505.25712599999997,-100.01399229999998,-12.1875
5710,6567,0.104651,0.0515724,480.5714264999999,-95.0419769,-36.5625
5711,6568,0.10392950000000001,0.0468474,480.5714264999999,-100.01399229999998,-12.1875
5712,6569,0.101543,0.05033445,455.88571199999996,-95.0419769,-36.5625
5713,6570,0.1004133,0.0463053,455.88571199999996,-100.01399229999998,-12.1875
5714,6571,0.09992755,0.0501566,431.199997,-95.0419769,-36.5625
5715,6572,0.09717945,0.045763200000000004,431.199997,-100.01399229999998,-12.1875
5716,6573,0.09798105,0.0498593,406.514282,-95.0419769,-36.5625
5717,6574,0.09527095000000001,0.0460179,406.514282,-100.01399229999998,-12.1875
5718,6575,0.0973383,0.0503015,381.82856749999996,-95.0419769,-36.5625
5719,6576,0.09252505,0.045814999999999995,381.82856749999996,-100.01399229999998,-12.1875
5720,6577,0.09573495,0.050126699999999996,357.142853,-95.0419769,-36.5625
5721,6578,0.091528,0.046582849999999995,357.142853,-100.01399229999998,-12.1875
5722,6579,0.09513525,0.05059035,332.457138,-95.0419769,-36.5625
5723,6580,0.0887602,0.046201149999999996,332.457138,-100.01399229999998,-12.1875
5724,6581,0.0927308,0.0498171,307.771423,-95.0419769,-36.5625
5725,6582,0.08800815000000001,0.04704765,307.771423,-100.01399229999998,-12.1875
5726,6583,0.0897215,0.049093200000000004,283.0857085,-95.0419769,-36.5625
5727,6584,0.082762,0.04491705,283.0857085,-100.01399229999998,-12.1875
5728,6585,0.08911854999999999,0.05117895,258.40000150000003,-95.0419769,-36.5625
5729,6586,0.0849325,0.047801750000000004,258.40000150000003,-100.01399229999998,-12.1875
5730,6587,0.0908427,0.0521502,233.71428650000001,-95.0419769,-36.5625
5731,6588,0.08397740000000001,0.0479399,233.71428650000001,-100.01399229999998,-12.1875
5732,6589,0.08982675000000001,0.05162345,209.028572,-95.0419769,-36.5625
5733,6590,0.0829251,0.047670699999999996,209.028572,-100.01399229999998,-12.1875
5734,6591,0.08800405,0.0506271,184.34285749999998,-95.0419769,-36.5625
5735,6592,0.08118255,0.0468552,184.34285749999998,-100.01399229999998,-12.1875
5736,6593,0.0012205150000000001,0.000699021,159.714287,-13.2644758,100.75370025000001
5737,6594,0.001268285,0.0007270045,135.142857,-13.2644758,100.75370025000001
5738,6595,0.00124882,0.0007184089999999999,110.5714266,-13.2644758,100.75370025000001
5739,6596,0.001252095,0.0007213594999999999,86.0,-13.2644758,100.75370025000001
5740,6597,0.001254395,0.000723528,61.4285717,-13.2644758,100.75370025000001
5741,6598,0.001255745,0.000724882,36.85714245,-13.2644758,100.75370025000001
5742,6599,0.001239,0.000715114,12.28571415,-13.2644758,100.75370025000001
5743,6600,0.00119754,0.000639758,159.714287,-38.8894758,93.88750075
5744,6601,0.001230405,0.0006694655000000001,135.142857,-38.8894758,93.88750075
5745,6602,0.001199905,0.000662928,110.5714266,-38.8894758,93.88750075
5746,6603,0.00114813,0.0006488259999999999,86.0,-38.8894758,93.88750075
5747,6604,0.001153125,0.000660737,61.4285717,-38.8894758,93.88750075
5748,6605,0.0011425250000000001,0.0006581625000000001,36.85714245,-38.8894758,93.88750075
5749,6606,0.00112585,0.0006490840000000001,12.28571415,-38.8894758,93.88750075
5750,6607,0.001167825,0.000525104,159.714287,-61.86422350000001,80.623024
5751,6608,0.001180815,0.0005522725,135.142857,-61.86422350000001,80.623024
5752,6609,0.001053295,0.000528805,110.5714266,-61.86422350000001,80.623024
5753,6610,0.0010031519999999998,0.000538765,86.0,-61.86422350000001,80.623024
5754,6611,0.00093867,0.0005236780000000001,61.4285717,-61.86422350000001,80.623024
5755,6612,0.0009270155,0.000531688,36.85714245,-61.86422350000001,80.623024
5756,6613,0.0009102190000000001,0.0005219045,12.28571415,-61.86422350000001,80.623024
5757,6614,0.001166777,0.0003098355,159.714287,-80.623024,61.8642235
5758,6615,0.001057171,0.00034045599999999994,135.142857,-80.623024,61.8642235
5759,6616,0.0009336440000000001,0.00035801750000000003,110.5714266,-80.623024,61.8642235
5760,6617,0.0007432954999999999,0.0003409425,86.0,-80.623024,61.8642235
5761,6618,0.0006932990000000001,0.00036832200000000003,61.4285717,-80.623024,61.8642235
5762,6619,0.0006087255,0.00033990050000000003,36.85714245,-80.623024,61.8642235
5763,6620,0.0005910945000000001,0.0003324055,12.28571415,-80.623024,61.8642235
5764,6621,0.001246203,4.1264e-05,159.714287,-93.88750075,38.8894758
5765,6622,0.001212738,8.470195e-05,135.142857,-93.88750075,38.8894758
5766,6623,0.0008583815,5.5029e-05,110.5714266,-93.88750075,38.8894758
5767,6624,0.000553995,9.43102e-05,86.0,-93.88750075,38.8894758
5768,6625,0.0003012075,8.49178e-05,61.4285717,-93.88750075,38.8894758
5769,6626,0.00028633649999999994,0.0001512325,36.85714245,-93.88750075,38.8894758
5770,6627,0.0003081295,0.0001466875,12.28571415,-93.88750075,38.8894758
5771,6628,0.00182507,-0.0003434605,159.714287,-100.75370025000001,13.2644758
5772,6629,0.00147554,-0.0003588395,135.142857,-100.75370025000001,13.2644758
5773,6630,0.0010525665,-0.00027327199999999997,110.5714266,-100.75370025000001,13.2644758
5774,6631,0.0007470915,-0.0002705125,86.0,-100.75370025000001,13.2644758
5775,6632,0.00048465750000000005,-0.000239471,61.4285717,-100.75370025000001,13.2644758
5776,6633,0.00041832999999999996,-0.000216426,36.85714245,-100.75370025000001,13.2644758
5777,6634,0.0005836519999999999,-0.0001375905,12.28571415,-100.75370025000001,13.2644758
